*Heading
** Job name: Job-1 Model name: Model-1
** Generated by: Abaqus/CAE 2020
*Preprint, echo=NO, model=NO, history=NO, contact=NO
** ----------------------------------------------------------------
** 
** PART INSTANCE: Part-1-1
** 
*Node
      1,  0.707106769,  0.707106769
      2,           5.,           5.
      3,          -5.,           5.
      4, -0.707106769,  0.707106769
      5,           1.,           0.
      6,  0.707106769, -0.707106769
      7,           5.,          -5.
      8,          -5.,          -5.
      9, -0.707106769, -0.707106769
     10,  0.777817488,  0.777817488
     11,  0.853698134,  0.853698134
     12,  0.935126722,  0.935126722
     13,   1.02250898,   1.02250898
     14,    1.1162802,    1.1162802
     15,   1.21690738,   1.21690738
     16,   1.32489181,   1.32489181
     17,   1.44077158,   1.44077158
     18,    1.5651238,    1.5651238
     19,   1.69856799,   1.69856799
     20,   1.84176886,   1.84176886
     21,   1.99543977,   1.99543977
     22,   2.16034627,   2.16034627
     23,   2.33730984,   2.33730984
     24,    2.5272119,    2.5272119
     25,   2.73099875,   2.73099875
     26,   2.94968534,   2.94968534
     27,   3.18436098,   3.18436098
     28,    3.4361949,    3.4361949
     29,   3.70644164,   3.70644164
     30,   3.99644709,   3.99644709
     31,   4.30765629,   4.30765629
     32,   4.64161921,   4.64161921
     33,     4.090909,           5.
     34,   3.18181825,           5.
     35,   2.27272725,           5.
     36,   1.36363637,           5.
     37,  0.454545468,           5.
     38, -0.454545468,           5.
     39,  -1.36363637,           5.
     40,  -2.27272725,           5.
     41,  -3.18181825,           5.
     42,    -4.090909,           5.
     43,  -4.64161921,   4.64161921
     44,  -4.30765629,   4.30765629
     45,  -3.99644709,   3.99644709
     46,  -3.70644164,   3.70644164
     47,   -3.4361949,    3.4361949
     48,  -3.18436098,   3.18436098
     49,  -2.94968534,   2.94968534
     50,  -2.73099875,   2.73099875
     51,   -2.5272119,    2.5272119
     52,  -2.33730984,   2.33730984
     53,  -2.16034627,   2.16034627
     54,  -1.99543977,   1.99543977
     55,  -1.84176886,   1.84176886
     56,  -1.69856799,   1.69856799
     57,   -1.5651238,    1.5651238
     58,  -1.44077158,   1.44077158
     59,  -1.32489181,   1.32489181
     60,  -1.21690738,   1.21690738
     61,   -1.1162802,    1.1162802
     62,  -1.02250898,   1.02250898
     63, -0.935126722,  0.935126722
     64, -0.853698134,  0.853698134
     65, -0.777817488,  0.777817488
     66, -0.599277675,  0.800541222
     67, -0.479249001,   0.87767899
     68, -0.349464178,   0.93694973
     69, -0.212565288,  0.977146864
     70, -0.0713391826,   0.99745214
     71, 0.0713391826,   0.99745214
     72,  0.212565288,  0.977146864
     73,  0.349464178,   0.93694973
     74,  0.479249001,   0.87767899
     75,  0.599277675,  0.800541222
     76,  0.793353319,   0.60876143
     77,  0.866025388,          0.5
     78,  0.923879504,  0.382683426
     79,  0.965925813,  0.258819044
     80,  0.991444886,  0.130526185
     81,  0.991444886, -0.130526185
     82,  0.965925813, -0.258819044
     83,  0.923879504, -0.382683426
     84,  0.866025388,         -0.5
     85,  0.793353319,  -0.60876143
     86,  0.777817488, -0.777817488
     87,  0.853698134, -0.853698134
     88,  0.935126722, -0.935126722
     89,   1.02250898,  -1.02250898
     90,    1.1162802,   -1.1162802
     91,   1.21690738,  -1.21690738
     92,   1.32489181,  -1.32489181
     93,   1.44077158,  -1.44077158
     94,    1.5651238,   -1.5651238
     95,   1.69856799,  -1.69856799
     96,   1.84176886,  -1.84176886
     97,   1.99543977,  -1.99543977
     98,   2.16034627,  -2.16034627
     99,   2.33730984,  -2.33730984
    100,    2.5272119,   -2.5272119
    101,   2.73099875,  -2.73099875
    102,   2.94968534,  -2.94968534
    103,   3.18436098,  -3.18436098
    104,    3.4361949,   -3.4361949
    105,   3.70644164,  -3.70644164
    106,   3.99644709,  -3.99644709
    107,   4.30765629,  -4.30765629
    108,   4.64161921,  -4.64161921
    109,           5.,  -4.16666651
    110,           5.,  -3.33333325
    111,           5.,         -2.5
    112,           5.,  -1.66666663
    113,           5., -0.833333313
    114,           5.,           0.
    115,           5.,  0.833333313
    116,           5.,   1.66666663
    117,           5.,          2.5
    118,           5.,   3.33333325
    119,           5.,   4.16666651
    120,  -4.64161921,  -4.64161921
    121,  -4.30765629,  -4.30765629
    122,  -3.99644709,  -3.99644709
    123,  -3.70644164,  -3.70644164
    124,   -3.4361949,   -3.4361949
    125,  -3.18436098,  -3.18436098
    126,  -2.94968534,  -2.94968534
    127,  -2.73099875,  -2.73099875
    128,   -2.5272119,   -2.5272119
    129,  -2.33730984,  -2.33730984
    130,  -2.16034627,  -2.16034627
    131,  -1.99543977,  -1.99543977
    132,  -1.84176886,  -1.84176886
    133,  -1.69856799,  -1.69856799
    134,   -1.5651238,   -1.5651238
    135,  -1.44077158,  -1.44077158
    136,  -1.32489181,  -1.32489181
    137,  -1.21690738,  -1.21690738
    138,   -1.1162802,   -1.1162802
    139,  -1.02250898,  -1.02250898
    140, -0.935126722, -0.935126722
    141, -0.853698134, -0.853698134
    142, -0.777817488, -0.777817488
    143, -0.800541222, -0.599277675
    144,  -0.87767899, -0.479249001
    145,  -0.93694973, -0.349464178
    146, -0.977146864, -0.212565288
    147,  -0.99745214, -0.0713391826
    148,  -0.99745214, 0.0713391826
    149, -0.977146864,  0.212565288
    150,  -0.93694973,  0.349464178
    151,  -0.87767899,  0.479249001
    152, -0.800541222,  0.599277675
    153,          -5.,     4.090909
    154,          -5.,   3.18181825
    155,          -5.,   2.27272725
    156,          -5.,   1.36363637
    157,          -5.,  0.454545468
    158,          -5., -0.454545468
    159,          -5.,  -1.36363637
    160,          -5.,  -2.27272725
    161,          -5.,  -3.18181825
    162,          -5.,    -4.090909
    163,    -4.090909,          -5.
    164,  -3.18181825,          -5.
    165,  -2.27272725,          -5.
    166,  -1.36363637,          -5.
    167, -0.454545468,          -5.
    168,  0.454545468,          -5.
    169,   1.36363637,          -5.
    170,   2.27272725,          -5.
    171,   3.18181825,          -5.
    172,     4.090909,          -5.
    173,  0.599277675, -0.800541222
    174,  0.479249001,  -0.87767899
    175,  0.349464178,  -0.93694973
    176,  0.212565288, -0.977146864
    177, 0.0713391826,  -0.99745214
    178, -0.0713391826,  -0.99745214
    179, -0.212565288, -0.977146864
    180, -0.349464178,  -0.93694973
    181, -0.479249001,  -0.87767899
    182, -0.599277675, -0.800541222
    183,  0.656790316,  0.869712889
    184,  0.718507946,   0.94394201
    185,  0.784738064,   1.02359831
    186,  0.855810523,   1.10907876
    187,  0.932079434,     1.200809
    188,   1.01392472,   1.29924607
    189,   1.10175407,   1.40488029
    190,   1.19600511,   1.51823783
    191,   1.29714715,   1.63988352
    192,   1.40568411,   1.77042329
    193,   1.52215683,   1.91050744
    194,   1.64714527,   2.06083369
    195,   1.78127229,   2.22215104
    196,   1.92520583,   2.39526296
    197,   2.07966304,   2.58103204
    198,    2.2454133,   2.78038335
    199,   2.42328238,   2.99431014
    200,   2.61415625,   3.22387815
    201,    2.8189857,   3.47023106
    202,   3.03879118,   3.73459578
    203,   3.27466774,   4.01828957
    204,   3.52779031,    4.3227253
    205,   3.79941964,   4.64941931
    206,  0.523764551,  0.945580065
    207,  0.571534812,   1.01844573
    208,  0.622797787,   1.09663892
    209,  0.677808881,   1.18054914
    210,  0.736842036,   1.27059436
    211,  0.800191343,   1.36722326
    212,  0.868172407,   1.47091722
    213,  0.941123903,   1.58219266
    214,    1.0194093,   1.70160389
    215,   1.10341835,   1.82974577
    216,   1.19356978,   1.96725678
    217,   1.29031253,   2.11482191
    218,   1.39412856,   2.27317595
    219,   1.50553501,   2.44310808
    220,   1.62508702,   2.62546492
    221,   1.75337994,   2.82115436
    222,   1.89105296,   3.03115177
    223,   2.03879189,   3.25650287
    224,   2.19733262,   3.49833059
    225,   2.36746502,    3.7578392
    226,   2.55003643,   4.03632212
    227,   2.74595666,    4.3351655
    228,   2.95620155,   4.65585899
    229,  0.381143332,   1.00387454
    230,  0.415138692,   1.07569253
    231,  0.451619625,   1.15276146
    232,  0.490767807,   1.23546517
    233,  0.532778323,   1.32421577
    234,  0.577860415,   1.41945541
    235,  0.626238644,    1.5216583
    236,  0.678153992,   1.63133383
    237,  0.733865201,   1.74902821
    238,  0.793649614,   1.87532771
    239,  0.857805192,   2.01086164
    240,  0.926651418,   2.15630484
    241,   1.00053132,   2.31238222
    242,     1.079813,   2.47987103
    243,   1.16489124,   2.65960598
    244,   1.25618994,   2.85248184
    245,   1.35416389,   3.05945992
    246,   1.45930111,   3.28157091
    247,   1.57212555,   3.51992154
    248,   1.69319892,   3.77569914
    249,   1.82312465,   4.05017757
    250,   1.96254969,   4.34472466
    251,   2.11216879,   4.66080713
    252,  0.231525227,   1.04340959
    253,  0.251871437,   1.11451697
    254,  0.273705214,   1.19082344
    255,  0.297135383,   1.27270901
    256,  0.322278619,   1.36058164
    257,  0.349260211,   1.45487893
    258,  0.378214538,    1.5560708
    259,  0.409285843,   1.66466117
    260,   0.44262892,   1.78119123
    261,  0.478409827,   1.90624118
    262,  0.516806901,   2.04043412
    263,  0.558011293,   2.18443847
    264,  0.602228343,   2.33897185
    265,  0.649678349,   2.50480366
    266,  0.700597584,   2.68276024
    267,  0.755239725,   2.87372804
    268,  0.813877046,   3.07865834
    269,   0.87680161,   3.29857206
    270,  0.944326878,    3.5345645
    271,    1.0167892,   3.78781152
    272,   1.09454966,    4.0595746
    273,   1.17799544,   4.35120726
    274,   1.26754224,   4.66416311
    275, 0.0776511878,   1.06338036
    276, 0.0844246969,   1.13412893
    277,  0.091693446,   1.21005023
    278, 0.0994936451,   1.29152238
    279,  0.107864156,   1.37895143
    280,  0.116846666,   1.47277284
    281,  0.126485929,    1.5734539
    282,  0.136829972,   1.68149626
    283,  0.147930294,   1.79743803
    284,  0.159842238,   1.92185688
    285,  0.172625095,   2.05537248
    286,  0.186342567,   2.19865012
    287,  0.201062992,   2.35240316
    288,  0.216859698,   2.51739812
    289,  0.233811364,   2.69445634
    290,  0.252002448,   2.88446021
    291,  0.271523565,   3.08835626
    292,  0.292471945,    3.3071599
    293,  0.314951986,   3.54196119
    294,  0.339075595,   3.79393005
    295,  0.364963025,   4.06432152
    296,    0.3927432,   4.35448217
    297,  0.422554523,   4.66585827
    298, -0.0776511878,   1.06338036
    299, -0.0844246969,   1.13412893
    300, -0.091693446,   1.21005023
    301, -0.0994936451,   1.29152238
    302, -0.107864156,   1.37895143
    303, -0.116846666,   1.47277284
    304, -0.126485929,    1.5734539
    305, -0.136829972,   1.68149626
    306, -0.147930294,   1.79743803
    307, -0.159842238,   1.92185688
    308, -0.172625095,   2.05537248
    309, -0.186342567,   2.19865012
    310, -0.201062992,   2.35240316
    311, -0.216859698,   2.51739812
    312, -0.233811364,   2.69445634
    313, -0.252002448,   2.88446021
    314, -0.271523565,   3.08835626
    315, -0.292471945,    3.3071599
    316, -0.314951986,   3.54196119
    317, -0.339075595,   3.79393005
    318, -0.364963025,   4.06432152
    319,   -0.3927432,   4.35448217
    320, -0.422554523,   4.66585827
    321, -0.231525227,   1.04340959
    322, -0.251871437,   1.11451697
    323, -0.273705214,   1.19082344
    324, -0.297135383,   1.27270901
    325, -0.322278619,   1.36058164
    326, -0.349260211,   1.45487893
    327, -0.378214538,    1.5560708
    328, -0.409285843,   1.66466117
    329,  -0.44262892,   1.78119123
    330, -0.478409827,   1.90624118
    331, -0.516806901,   2.04043412
    332, -0.558011293,   2.18443847
    333, -0.602228343,   2.33897185
    334, -0.649678349,   2.50480366
    335, -0.700597584,   2.68276024
    336, -0.755239725,   2.87372804
    337, -0.813877046,   3.07865834
    338,  -0.87680161,   3.29857206
    339, -0.944326878,    3.5345645
    340,   -1.0167892,   3.78781152
    341,  -1.09454966,    4.0595746
    342,  -1.17799544,   4.35120726
    343,  -1.26754224,   4.66416311
    344, -0.381143332,   1.00387454
    345, -0.415138692,   1.07569253
    346, -0.451619625,   1.15276146
    347, -0.490767807,   1.23546517
    348, -0.532778323,   1.32421577
    349, -0.577860415,   1.41945541
    350, -0.626238644,    1.5216583
    351, -0.678153992,   1.63133383
    352, -0.733865201,   1.74902821
    353, -0.793649614,   1.87532771
    354, -0.857805192,   2.01086164
    355, -0.926651418,   2.15630484
    356,  -1.00053132,   2.31238222
    357,    -1.079813,   2.47987103
    358,  -1.16489124,   2.65960598
    359,  -1.25618994,   2.85248184
    360,  -1.35416389,   3.05945992
    361,  -1.45930111,   3.28157091
    362,  -1.57212555,   3.51992154
    363,  -1.69319892,   3.77569914
    364,  -1.82312465,   4.05017757
    365,  -1.96254969,   4.34472466
    366,  -2.11216879,   4.66080713
    367, -0.523764551,  0.945580065
    368, -0.571534812,   1.01844573
    369, -0.622797787,   1.09663892
    370, -0.677808881,   1.18054914
    371, -0.736842036,   1.27059436
    372, -0.800191343,   1.36722326
    373, -0.868172407,   1.47091722
    374, -0.941123903,   1.58219266
    375,   -1.0194093,   1.70160389
    376,  -1.10341835,   1.82974577
    377,  -1.19356978,   1.96725678
    378,  -1.29031253,   2.11482191
    379,  -1.39412856,   2.27317595
    380,  -1.50553501,   2.44310808
    381,  -1.62508702,   2.62546492
    382,  -1.75337994,   2.82115436
    383,  -1.89105296,   3.03115177
    384,  -2.03879189,   3.25650287
    385,  -2.19733262,   3.49833059
    386,  -2.36746502,    3.7578392
    387,  -2.55003643,   4.03632212
    388,  -2.74595666,    4.3351655
    389,  -2.95620155,   4.65585899
    390, -0.656790316,  0.869712889
    391, -0.718507946,   0.94394201
    392, -0.784738064,   1.02359831
    393, -0.855810523,   1.10907876
    394, -0.932079434,     1.200809
    395,  -1.01392472,   1.29924607
    396,  -1.10175407,   1.40488029
    397,  -1.19600511,   1.51823783
    398,  -1.29714715,   1.63988352
    399,  -1.40568411,   1.77042329
    400,  -1.52215683,   1.91050744
    401,  -1.64714527,   2.06083369
    402,  -1.78127229,   2.22215104
    403,  -1.92520583,   2.39526296
    404,  -2.07966304,   2.58103204
    405,   -2.2454133,   2.78038335
    406,  -2.42328238,   2.99431014
    407,  -2.61415625,   3.22387815
    408,   -2.8189857,   3.47023106
    409,  -3.03879118,   3.73459578
    410,  -3.27466774,   4.01828957
    411,  -3.52779031,    4.3227253
    412,  -3.79941964,   4.64941931
    413,   4.64881945,   3.86964464
    414,   4.32156563,   3.59285951
    415,   4.01660919,   3.33493257
    416,   3.73242974,   3.09457898
    417,    3.4676125,   2.87060118
    418,   3.22083831,   2.66188407
    419,   2.99087715,    2.4673872
    420,   2.77658415,   2.28614211
    421,   2.57689166,   2.11724567
    422,   2.39080477,   1.95985675
    423,    2.2173965,   1.81319118
    424,   2.05580306,   1.67651844
    425,   1.90521944,    1.5491575
    426,   1.76489556,   1.43047416
    427,   1.63413227,   1.31987703
    428,   1.51227844,   1.21681511
    429,    1.3987267,   1.12077522
    430,   1.29291177,   1.03127885
    431,   1.19430614,   0.94788003
    432,    1.1024189,    0.8701635
    433,    1.0167923,  0.797742009
    434,  0.936999559,  0.730254829
    435,  0.862643421,   0.66736573
    436,   4.65488625,   3.09680009
    437,   4.33328629,   2.87638259
    438,   4.03359747,   2.67098284
    439,   3.75432777,   2.47957754
    440,   3.49408555,   2.30121326
    441,   3.25157428,   2.13500142
    442,   3.02558589,   1.98011422
    443,   2.81499505,   1.83577991
    444,   2.61875224,   1.70127952
    445,   2.43587995,   1.57594299
    446,   2.26546741,   1.45914614
    447,   2.10666561,   1.35030687
    448,   1.95868337,   1.24888325
    449,   1.82078362,   1.15436983
    450,   1.69227946,   1.06629598
    451,   1.57253063,  0.984222829
    452,   1.46094072,  0.907741547
    453,   1.35695362,    0.8364712
    454,   1.26005161,  0.770056665
    455,   1.16975176,  0.708167195
    456,   1.08560431,  0.650494456
    457,   1.00719011,  0.596751094
    458,   0.93411845,  0.546669424
    459,   4.65971613,   2.32324147
    460,   4.34261656,   2.15852618
    461,     4.047122,   2.00503325
    462,    3.7717607,   1.86199844
    463,   3.51516032,   1.72870886
    464,   3.27604294,   1.60450077
    465,   3.05321741,   1.48875535
    466,   2.84557366,   1.38089597
    467,    2.6520772,   1.28038549
    468,   2.47176433,   1.18672299
    469,   2.30373669,   1.09944201
    470,   2.14715719,   1.01810777
    471,   2.00124598,  0.942315042
    472,    1.8652761,  0.871686339
    473,   1.73857033,  0.805869758
    474,   1.62049735,  0.744537413
    475,   1.51046908,   0.68738389
    476,   1.40793729,  0.634124398
    477,    1.3123914,  0.584493637
    478,   1.22335529,  0.538244307
    479,   1.14038551,  0.495146155
    480,   1.06306863,  0.454984397
    481,  0.991019607,  0.417558968
    482,   4.66322613,   1.54913628
    483,   4.34939766,   1.43961358
    484,   4.05695152,   1.33755302
    485,   3.78443027,   1.24244618
    486,   3.53047681,    1.1538192
    487,    3.2938261,   1.07123065
    488,   3.07329893,  0.994269192
    489,   2.86779714,  0.922551274
    490,   2.67629671,  0.855719686
    491,   2.49784374,  0.793441594
    492,   2.33154941,  0.735406637
    493,   2.17658496,  0.681325853
    494,   2.03217888,  0.630929708
    495,   1.89761162,  0.583967209
    496,   1.77221286,  0.540204406
    497,   1.65535784,  0.499423265
    498,   1.54646456,  0.461420685
    499,    1.4449904,   0.42600733
    500,   1.35043013,  0.393006802
    501,   1.26231241,  0.362254709
    502,   1.18019843,  0.333597839
    503,   1.10367918,  0.306893438
    504,   1.03237331,  0.282008499
    505,   4.66535664,  0.774661362
    506,   4.35351324,  0.719986916
    507,   4.06291723,   0.66903758
    508,   3.79211998,   0.62155956
    509,   3.53977299,  0.577316403
    510,   3.30461907,  0.536087632
    511,   3.08548713,  0.497667909
    512,   2.88128519,  0.461865842
    513,   2.69099617,  0.428503066
    514,   2.51367211,  0.397413403
    515,   2.34842968,  0.368441969
    516,   2.19444561,  0.341444463
    517,   2.05095291,  0.316286355
    518,   1.91723704,  0.292842358
    519,   1.79263139,  0.270995677
    520,    1.6765157,  0.250637472
    521,   1.56831121,  0.231666312
    522,   1.46747899,  0.213987723
    523,    1.3735168,   0.19751364
    524,    1.2859565,  0.182161987
    525,   1.20436203,  0.167856276
    526,   1.12832677,  0.154525265
    527,   1.05747199,  0.142102525
    528,   4.66607094,           0.
    529,   4.35489321,           0.
    530,   4.06491709,           0.
    531,   3.79469776,           0.
    532,   3.54288936,           0.
    533,   3.30823755,           0.
    534,   3.08957314,           0.
    535,   2.88580704,           0.
    536,   2.69592404,           0.
    537,   2.51897836,           0.
    538,   2.35408854,           0.
    539,   2.20043325,           0.
    540,   2.05724692,           0.
    541,   1.92381632,           0.
    542,   1.79947662,           0.
    543,   1.68360865,           0.
    544,   1.57563519,           0.
    545,   1.47501814,           0.
    546,   1.38125646,           0.
    547,   1.29388309,           0.
    548,   1.21246278,           0.
    549,   1.13658977,           0.
    550,   1.06588626,           0.
    551,   4.66535664, -0.774661362
    552,   4.35351324, -0.719986916
    553,   4.06291723,  -0.66903758
    554,   3.79211998,  -0.62155956
    555,   3.53977299, -0.577316403
    556,   3.30461907, -0.536087632
    557,   3.08548713, -0.497667909
    558,   2.88128519, -0.461865842
    559,   2.69099617, -0.428503066
    560,   2.51367211, -0.397413403
    561,   2.34842968, -0.368441969
    562,   2.19444561, -0.341444463
    563,   2.05095291, -0.316286355
    564,   1.91723704, -0.292842358
    565,   1.79263139, -0.270995677
    566,    1.6765157, -0.250637472
    567,   1.56831121, -0.231666312
    568,   1.46747899, -0.213987723
    569,    1.3735168,  -0.19751364
    570,    1.2859565, -0.182161987
    571,   1.20436203, -0.167856276
    572,   1.12832677, -0.154525265
    573,   1.05747199, -0.142102525
    574,   4.66322613,  -1.54913628
    575,   4.34939766,  -1.43961358
    576,   4.05695152,  -1.33755302
    577,   3.78443027,  -1.24244618
    578,   3.53047681,   -1.1538192
    579,    3.2938261,  -1.07123065
    580,   3.07329893, -0.994269192
    581,   2.86779714, -0.922551274
    582,   2.67629671, -0.855719686
    583,   2.49784374, -0.793441594
    584,   2.33154941, -0.735406637
    585,   2.17658496, -0.681325853
    586,   2.03217888, -0.630929708
    587,   1.89761162, -0.583967209
    588,   1.77221286, -0.540204406
    589,   1.65535784, -0.499423265
    590,   1.54646456, -0.461420685
    591,    1.4449904,  -0.42600733
    592,   1.35043013, -0.393006802
    593,   1.26231241, -0.362254709
    594,   1.18019843, -0.333597839
    595,   1.10367918, -0.306893438
    596,   1.03237331, -0.282008499
    597,   4.65971613,  -2.32324147
    598,   4.34261656,  -2.15852618
    599,     4.047122,  -2.00503325
    600,    3.7717607,  -1.86199844
    601,   3.51516032,  -1.72870886
    602,   3.27604294,  -1.60450077
    603,   3.05321741,  -1.48875535
    604,   2.84557366,  -1.38089597
    605,    2.6520772,  -1.28038549
    606,   2.47176433,  -1.18672299
    607,   2.30373669,  -1.09944201
    608,   2.14715719,  -1.01810777
    609,   2.00124598, -0.942315042
    610,    1.8652761, -0.871686339
    611,   1.73857033, -0.805869758
    612,   1.62049735, -0.744537413
    613,   1.51046908,  -0.68738389
    614,   1.40793729, -0.634124398
    615,    1.3123914, -0.584493637
    616,   1.22335529, -0.538244307
    617,   1.14038551, -0.495146155
    618,   1.06306863, -0.454984397
    619,  0.991019607, -0.417558968
    620,   4.65488625,  -3.09680009
    621,   4.33328629,  -2.87638259
    622,   4.03359747,  -2.67098284
    623,   3.75432777,  -2.47957754
    624,   3.49408555,  -2.30121326
    625,   3.25157428,  -2.13500142
    626,   3.02558589,  -1.98011422
    627,   2.81499505,  -1.83577991
    628,   2.61875224,  -1.70127952
    629,   2.43587995,  -1.57594299
    630,   2.26546741,  -1.45914614
    631,   2.10666561,  -1.35030687
    632,   1.95868337,  -1.24888325
    633,   1.82078362,  -1.15436983
    634,   1.69227946,  -1.06629598
    635,   1.57253063, -0.984222829
    636,   1.46094072, -0.907741547
    637,   1.35695362,   -0.8364712
    638,   1.26005161, -0.770056665
    639,   1.16975176, -0.708167195
    640,   1.08560431, -0.650494456
    641,   1.00719011, -0.596751094
    642,   0.93411845, -0.546669424
    643,   4.64881945,  -3.86964464
    644,   4.32156563,  -3.59285951
    645,   4.01660919,  -3.33493257
    646,   3.73242974,  -3.09457898
    647,    3.4676125,  -2.87060118
    648,   3.22083831,  -2.66188407
    649,   2.99087715,   -2.4673872
    650,   2.77658415,  -2.28614211
    651,   2.57689166,  -2.11724567
    652,   2.39080477,  -1.95985675
    653,    2.2173965,  -1.81319118
    654,   2.05580306,  -1.67651844
    655,   1.90521944,   -1.5491575
    656,   1.76489556,  -1.43047416
    657,   1.63413227,  -1.31987703
    658,   1.51227844,  -1.21681511
    659,    1.3987267,  -1.12077522
    660,   1.29291177,  -1.03127885
    661,   1.19430614,  -0.94788003
    662,    1.1024189,   -0.8701635
    663,    1.0167923, -0.797742009
    664,  0.936999559, -0.730254829
    665,  0.862643421,  -0.66736573
    666,  -4.64941931,  -3.79941964
    667,   -4.3227253,  -3.52779031
    668,  -4.01828957,  -3.27466774
    669,  -3.73459578,  -3.03879118
    670,  -3.47023106,   -2.8189857
    671,  -3.22387815,  -2.61415625
    672,  -2.99431014,  -2.42328238
    673,  -2.78038335,   -2.2454133
    674,  -2.58103204,  -2.07966304
    675,  -2.39526296,  -1.92520583
    676,  -2.22215104,  -1.78127229
    677,  -2.06083369,  -1.64714527
    678,  -1.91050744,  -1.52215683
    679,  -1.77042329,  -1.40568411
    680,  -1.63988352,  -1.29714715
    681,  -1.51823783,  -1.19600511
    682,  -1.40488029,  -1.10175407
    683,  -1.29924607,  -1.01392472
    684,    -1.200809, -0.932079434
    685,  -1.10907876, -0.855810523
    686,  -1.02359831, -0.784738064
    687,  -0.94394201, -0.718507946
    688, -0.869712889, -0.656790316
    689,  -4.65585899,  -2.95620155
    690,   -4.3351655,  -2.74595666
    691,  -4.03632212,  -2.55003643
    692,   -3.7578392,  -2.36746502
    693,  -3.49833059,  -2.19733262
    694,  -3.25650287,  -2.03879189
    695,  -3.03115177,  -1.89105296
    696,  -2.82115436,  -1.75337994
    697,  -2.62546492,  -1.62508702
    698,  -2.44310808,  -1.50553501
    699,  -2.27317595,  -1.39412856
    700,  -2.11482191,  -1.29031253
    701,  -1.96725678,  -1.19356978
    702,  -1.82974577,  -1.10341835
    703,  -1.70160389,   -1.0194093
    704,  -1.58219266, -0.941123903
    705,  -1.47091722, -0.868172407
    706,  -1.36722326, -0.800191343
    707,  -1.27059436, -0.736842036
    708,  -1.18054914, -0.677808881
    709,  -1.09663892, -0.622797787
    710,  -1.01844573, -0.571534812
    711, -0.945580065, -0.523764551
    712,  -4.66080713,  -2.11216879
    713,  -4.34472466,  -1.96254969
    714,  -4.05017757,  -1.82312465
    715,  -3.77569914,  -1.69319892
    716,  -3.51992154,  -1.57212555
    717,  -3.28157091,  -1.45930111
    718,  -3.05945992,  -1.35416389
    719,  -2.85248184,  -1.25618994
    720,  -2.65960598,  -1.16489124
    721,  -2.47987103,    -1.079813
    722,  -2.31238222,  -1.00053132
    723,  -2.15630484, -0.926651418
    724,  -2.01086164, -0.857805192
    725,  -1.87532771, -0.793649614
    726,  -1.74902821, -0.733865201
    727,  -1.63133383, -0.678153992
    728,   -1.5216583, -0.626238644
    729,  -1.41945541, -0.577860415
    730,  -1.32421577, -0.532778323
    731,  -1.23546517, -0.490767807
    732,  -1.15276146, -0.451619625
    733,  -1.07569253, -0.415138692
    734,  -1.00387454, -0.381143332
    735,  -4.66416311,  -1.26754224
    736,  -4.35120726,  -1.17799544
    737,   -4.0595746,  -1.09454966
    738,  -3.78781152,   -1.0167892
    739,   -3.5345645, -0.944326878
    740,  -3.29857206,  -0.87680161
    741,  -3.07865834, -0.813877046
    742,  -2.87372804, -0.755239725
    743,  -2.68276024, -0.700597584
    744,  -2.50480366, -0.649678349
    745,  -2.33897185, -0.602228343
    746,  -2.18443847, -0.558011293
    747,  -2.04043412, -0.516806901
    748,  -1.90624118, -0.478409827
    749,  -1.78119123,  -0.44262892
    750,  -1.66466117, -0.409285843
    751,   -1.5560708, -0.378214538
    752,  -1.45487893, -0.349260211
    753,  -1.36058164, -0.322278619
    754,  -1.27270901, -0.297135383
    755,  -1.19082344, -0.273705214
    756,  -1.11451697, -0.251871437
    757,  -1.04340959, -0.231525227
    758,  -4.66585827, -0.422554523
    759,  -4.35448217,   -0.3927432
    760,  -4.06432152, -0.364963025
    761,  -3.79393005, -0.339075595
    762,  -3.54196119, -0.314951986
    763,   -3.3071599, -0.292471945
    764,  -3.08835626, -0.271523565
    765,  -2.88446021, -0.252002448
    766,  -2.69445634, -0.233811364
    767,  -2.51739812, -0.216859698
    768,  -2.35240316, -0.201062992
    769,  -2.19865012, -0.186342567
    770,  -2.05537248, -0.172625095
    771,  -1.92185688, -0.159842238
    772,  -1.79743803, -0.147930294
    773,  -1.68149626, -0.136829972
    774,   -1.5734539, -0.126485929
    775,  -1.47277284, -0.116846666
    776,  -1.37895143, -0.107864156
    777,  -1.29152238, -0.0994936451
    778,  -1.21005023, -0.091693446
    779,  -1.13412893, -0.0844246969
    780,  -1.06338036, -0.0776511878
    781,  -4.66585827,  0.422554523
    782,  -4.35448217,    0.3927432
    783,  -4.06432152,  0.364963025
    784,  -3.79393005,  0.339075595
    785,  -3.54196119,  0.314951986
    786,   -3.3071599,  0.292471945
    787,  -3.08835626,  0.271523565
    788,  -2.88446021,  0.252002448
    789,  -2.69445634,  0.233811364
    790,  -2.51739812,  0.216859698
    791,  -2.35240316,  0.201062992
    792,  -2.19865012,  0.186342567
    793,  -2.05537248,  0.172625095
    794,  -1.92185688,  0.159842238
    795,  -1.79743803,  0.147930294
    796,  -1.68149626,  0.136829972
    797,   -1.5734539,  0.126485929
    798,  -1.47277284,  0.116846666
    799,  -1.37895143,  0.107864156
    800,  -1.29152238, 0.0994936451
    801,  -1.21005023,  0.091693446
    802,  -1.13412893, 0.0844246969
    803,  -1.06338036, 0.0776511878
    804,  -4.66416311,   1.26754224
    805,  -4.35120726,   1.17799544
    806,   -4.0595746,   1.09454966
    807,  -3.78781152,    1.0167892
    808,   -3.5345645,  0.944326878
    809,  -3.29857206,   0.87680161
    810,  -3.07865834,  0.813877046
    811,  -2.87372804,  0.755239725
    812,  -2.68276024,  0.700597584
    813,  -2.50480366,  0.649678349
    814,  -2.33897185,  0.602228343
    815,  -2.18443847,  0.558011293
    816,  -2.04043412,  0.516806901
    817,  -1.90624118,  0.478409827
    818,  -1.78119123,   0.44262892
    819,  -1.66466117,  0.409285843
    820,   -1.5560708,  0.378214538
    821,  -1.45487893,  0.349260211
    822,  -1.36058164,  0.322278619
    823,  -1.27270901,  0.297135383
    824,  -1.19082344,  0.273705214
    825,  -1.11451697,  0.251871437
    826,  -1.04340959,  0.231525227
    827,  -4.66080713,   2.11216879
    828,  -4.34472466,   1.96254969
    829,  -4.05017757,   1.82312465
    830,  -3.77569914,   1.69319892
    831,  -3.51992154,   1.57212555
    832,  -3.28157091,   1.45930111
    833,  -3.05945992,   1.35416389
    834,  -2.85248184,   1.25618994
    835,  -2.65960598,   1.16489124
    836,  -2.47987103,     1.079813
    837,  -2.31238222,   1.00053132
    838,  -2.15630484,  0.926651418
    839,  -2.01086164,  0.857805192
    840,  -1.87532771,  0.793649614
    841,  -1.74902821,  0.733865201
    842,  -1.63133383,  0.678153992
    843,   -1.5216583,  0.626238644
    844,  -1.41945541,  0.577860415
    845,  -1.32421577,  0.532778323
    846,  -1.23546517,  0.490767807
    847,  -1.15276146,  0.451619625
    848,  -1.07569253,  0.415138692
    849,  -1.00387454,  0.381143332
    850,  -4.65585899,   2.95620155
    851,   -4.3351655,   2.74595666
    852,  -4.03632212,   2.55003643
    853,   -3.7578392,   2.36746502
    854,  -3.49833059,   2.19733262
    855,  -3.25650287,   2.03879189
    856,  -3.03115177,   1.89105296
    857,  -2.82115436,   1.75337994
    858,  -2.62546492,   1.62508702
    859,  -2.44310808,   1.50553501
    860,  -2.27317595,   1.39412856
    861,  -2.11482191,   1.29031253
    862,  -1.96725678,   1.19356978
    863,  -1.82974577,   1.10341835
    864,  -1.70160389,    1.0194093
    865,  -1.58219266,  0.941123903
    866,  -1.47091722,  0.868172407
    867,  -1.36722326,  0.800191343
    868,  -1.27059436,  0.736842036
    869,  -1.18054914,  0.677808881
    870,  -1.09663892,  0.622797787
    871,  -1.01844573,  0.571534812
    872, -0.945580065,  0.523764551
    873,  -4.64941931,   3.79941964
    874,   -4.3227253,   3.52779031
    875,  -4.01828957,   3.27466774
    876,  -3.73459578,   3.03879118
    877,  -3.47023106,    2.8189857
    878,  -3.22387815,   2.61415625
    879,  -2.99431014,   2.42328238
    880,  -2.78038335,    2.2454133
    881,  -2.58103204,   2.07966304
    882,  -2.39526296,   1.92520583
    883,  -2.22215104,   1.78127229
    884,  -2.06083369,   1.64714527
    885,  -1.91050744,   1.52215683
    886,  -1.77042329,   1.40568411
    887,  -1.63988352,   1.29714715
    888,  -1.51823783,   1.19600511
    889,  -1.40488029,   1.10175407
    890,  -1.29924607,   1.01392472
    891,    -1.200809,  0.932079434
    892,  -1.10907876,  0.855810523
    893,  -1.02359831,  0.784738064
    894,  -0.94394201,  0.718507946
    895, -0.869712889,  0.656790316
    896, -0.656790316, -0.869712889
    897, -0.718507946,  -0.94394201
    898, -0.784738064,  -1.02359831
    899, -0.855810523,  -1.10907876
    900, -0.932079434,    -1.200809
    901,  -1.01392472,  -1.29924607
    902,  -1.10175407,  -1.40488029
    903,  -1.19600511,  -1.51823783
    904,  -1.29714715,  -1.63988352
    905,  -1.40568411,  -1.77042329
    906,  -1.52215683,  -1.91050744
    907,  -1.64714527,  -2.06083369
    908,  -1.78127229,  -2.22215104
    909,  -1.92520583,  -2.39526296
    910,  -2.07966304,  -2.58103204
    911,   -2.2454133,  -2.78038335
    912,  -2.42328238,  -2.99431014
    913,  -2.61415625,  -3.22387815
    914,   -2.8189857,  -3.47023106
    915,  -3.03879118,  -3.73459578
    916,  -3.27466774,  -4.01828957
    917,  -3.52779031,   -4.3227253
    918,  -3.79941964,  -4.64941931
    919, -0.523764551, -0.945580065
    920, -0.571534812,  -1.01844573
    921, -0.622797787,  -1.09663892
    922, -0.677808881,  -1.18054914
    923, -0.736842036,  -1.27059436
    924, -0.800191343,  -1.36722326
    925, -0.868172407,  -1.47091722
    926, -0.941123903,  -1.58219266
    927,   -1.0194093,  -1.70160389
    928,  -1.10341835,  -1.82974577
    929,  -1.19356978,  -1.96725678
    930,  -1.29031253,  -2.11482191
    931,  -1.39412856,  -2.27317595
    932,  -1.50553501,  -2.44310808
    933,  -1.62508702,  -2.62546492
    934,  -1.75337994,  -2.82115436
    935,  -1.89105296,  -3.03115177
    936,  -2.03879189,  -3.25650287
    937,  -2.19733262,  -3.49833059
    938,  -2.36746502,   -3.7578392
    939,  -2.55003643,  -4.03632212
    940,  -2.74595666,   -4.3351655
    941,  -2.95620155,  -4.65585899
    942, -0.381143332,  -1.00387454
    943, -0.415138692,  -1.07569253
    944, -0.451619625,  -1.15276146
    945, -0.490767807,  -1.23546517
    946, -0.532778323,  -1.32421577
    947, -0.577860415,  -1.41945541
    948, -0.626238644,   -1.5216583
    949, -0.678153992,  -1.63133383
    950, -0.733865201,  -1.74902821
    951, -0.793649614,  -1.87532771
    952, -0.857805192,  -2.01086164
    953, -0.926651418,  -2.15630484
    954,  -1.00053132,  -2.31238222
    955,    -1.079813,  -2.47987103
    956,  -1.16489124,  -2.65960598
    957,  -1.25618994,  -2.85248184
    958,  -1.35416389,  -3.05945992
    959,  -1.45930111,  -3.28157091
    960,  -1.57212555,  -3.51992154
    961,  -1.69319892,  -3.77569914
    962,  -1.82312465,  -4.05017757
    963,  -1.96254969,  -4.34472466
    964,  -2.11216879,  -4.66080713
    965, -0.231525227,  -1.04340959
    966, -0.251871437,  -1.11451697
    967, -0.273705214,  -1.19082344
    968, -0.297135383,  -1.27270901
    969, -0.322278619,  -1.36058164
    970, -0.349260211,  -1.45487893
    971, -0.378214538,   -1.5560708
    972, -0.409285843,  -1.66466117
    973,  -0.44262892,  -1.78119123
    974, -0.478409827,  -1.90624118
    975, -0.516806901,  -2.04043412
    976, -0.558011293,  -2.18443847
    977, -0.602228343,  -2.33897185
    978, -0.649678349,  -2.50480366
    979, -0.700597584,  -2.68276024
    980, -0.755239725,  -2.87372804
    981, -0.813877046,  -3.07865834
    982,  -0.87680161,  -3.29857206
    983, -0.944326878,   -3.5345645
    984,   -1.0167892,  -3.78781152
    985,  -1.09454966,   -4.0595746
    986,  -1.17799544,  -4.35120726
    987,  -1.26754224,  -4.66416311
    988, -0.0776511878,  -1.06338036
    989, -0.0844246969,  -1.13412893
    990, -0.091693446,  -1.21005023
    991, -0.0994936451,  -1.29152238
    992, -0.107864156,  -1.37895143
    993, -0.116846666,  -1.47277284
    994, -0.126485929,   -1.5734539
    995, -0.136829972,  -1.68149626
    996, -0.147930294,  -1.79743803
    997, -0.159842238,  -1.92185688
    998, -0.172625095,  -2.05537248
    999, -0.186342567,  -2.19865012
   1000, -0.201062992,  -2.35240316
   1001, -0.216859698,  -2.51739812
   1002, -0.233811364,  -2.69445634
   1003, -0.252002448,  -2.88446021
   1004, -0.271523565,  -3.08835626
   1005, -0.292471945,   -3.3071599
   1006, -0.314951986,  -3.54196119
   1007, -0.339075595,  -3.79393005
   1008, -0.364963025,  -4.06432152
   1009,   -0.3927432,  -4.35448217
   1010, -0.422554523,  -4.66585827
   1011, 0.0776511878,  -1.06338036
   1012, 0.0844246969,  -1.13412893
   1013,  0.091693446,  -1.21005023
   1014, 0.0994936451,  -1.29152238
   1015,  0.107864156,  -1.37895143
   1016,  0.116846666,  -1.47277284
   1017,  0.126485929,   -1.5734539
   1018,  0.136829972,  -1.68149626
   1019,  0.147930294,  -1.79743803
   1020,  0.159842238,  -1.92185688
   1021,  0.172625095,  -2.05537248
   1022,  0.186342567,  -2.19865012
   1023,  0.201062992,  -2.35240316
   1024,  0.216859698,  -2.51739812
   1025,  0.233811364,  -2.69445634
   1026,  0.252002448,  -2.88446021
   1027,  0.271523565,  -3.08835626
   1028,  0.292471945,   -3.3071599
   1029,  0.314951986,  -3.54196119
   1030,  0.339075595,  -3.79393005
   1031,  0.364963025,  -4.06432152
   1032,    0.3927432,  -4.35448217
   1033,  0.422554523,  -4.66585827
   1034,  0.231525227,  -1.04340959
   1035,  0.251871437,  -1.11451697
   1036,  0.273705214,  -1.19082344
   1037,  0.297135383,  -1.27270901
   1038,  0.322278619,  -1.36058164
   1039,  0.349260211,  -1.45487893
   1040,  0.378214538,   -1.5560708
   1041,  0.409285843,  -1.66466117
   1042,   0.44262892,  -1.78119123
   1043,  0.478409827,  -1.90624118
   1044,  0.516806901,  -2.04043412
   1045,  0.558011293,  -2.18443847
   1046,  0.602228343,  -2.33897185
   1047,  0.649678349,  -2.50480366
   1048,  0.700597584,  -2.68276024
   1049,  0.755239725,  -2.87372804
   1050,  0.813877046,  -3.07865834
   1051,   0.87680161,  -3.29857206
   1052,  0.944326878,   -3.5345645
   1053,    1.0167892,  -3.78781152
   1054,   1.09454966,   -4.0595746
   1055,   1.17799544,  -4.35120726
   1056,   1.26754224,  -4.66416311
   1057,  0.381143332,  -1.00387454
   1058,  0.415138692,  -1.07569253
   1059,  0.451619625,  -1.15276146
   1060,  0.490767807,  -1.23546517
   1061,  0.532778323,  -1.32421577
   1062,  0.577860415,  -1.41945541
   1063,  0.626238644,   -1.5216583
   1064,  0.678153992,  -1.63133383
   1065,  0.733865201,  -1.74902821
   1066,  0.793649614,  -1.87532771
   1067,  0.857805192,  -2.01086164
   1068,  0.926651418,  -2.15630484
   1069,   1.00053132,  -2.31238222
   1070,     1.079813,  -2.47987103
   1071,   1.16489124,  -2.65960598
   1072,   1.25618994,  -2.85248184
   1073,   1.35416389,  -3.05945992
   1074,   1.45930111,  -3.28157091
   1075,   1.57212555,  -3.51992154
   1076,   1.69319892,  -3.77569914
   1077,   1.82312465,  -4.05017757
   1078,   1.96254969,  -4.34472466
   1079,   2.11216879,  -4.66080713
   1080,  0.523764551, -0.945580065
   1081,  0.571534812,  -1.01844573
   1082,  0.622797787,  -1.09663892
   1083,  0.677808881,  -1.18054914
   1084,  0.736842036,  -1.27059436
   1085,  0.800191343,  -1.36722326
   1086,  0.868172407,  -1.47091722
   1087,  0.941123903,  -1.58219266
   1088,    1.0194093,  -1.70160389
   1089,   1.10341835,  -1.82974577
   1090,   1.19356978,  -1.96725678
   1091,   1.29031253,  -2.11482191
   1092,   1.39412856,  -2.27317595
   1093,   1.50553501,  -2.44310808
   1094,   1.62508702,  -2.62546492
   1095,   1.75337994,  -2.82115436
   1096,   1.89105296,  -3.03115177
   1097,   2.03879189,  -3.25650287
   1098,   2.19733262,  -3.49833059
   1099,   2.36746502,   -3.7578392
   1100,   2.55003643,  -4.03632212
   1101,   2.74595666,   -4.3351655
   1102,   2.95620155,  -4.65585899
   1103,  0.656790316, -0.869712889
   1104,  0.718507946,  -0.94394201
   1105,  0.784738064,  -1.02359831
   1106,  0.855810523,  -1.10907876
   1107,  0.932079434,    -1.200809
   1108,   1.01392472,  -1.29924607
   1109,   1.10175407,  -1.40488029
   1110,   1.19600511,  -1.51823783
   1111,   1.29714715,  -1.63988352
   1112,   1.40568411,  -1.77042329
   1113,   1.52215683,  -1.91050744
   1114,   1.64714527,  -2.06083369
   1115,   1.78127229,  -2.22215104
   1116,   1.92520583,  -2.39526296
   1117,   2.07966304,  -2.58103204
   1118,    2.2454133,  -2.78038335
   1119,   2.42328238,  -2.99431014
   1120,   2.61415625,  -3.22387815
   1121,    2.8189857,  -3.47023106
   1122,   3.03879118,  -3.73459578
   1123,   3.27466774,  -4.01828957
   1124,   3.52779031,   -4.3227253
   1125,   3.79941964,  -4.64941931
*Element, type=CPS4
  1,   1,  10, 183,  75
  2,  10,  11, 184, 183
  3,  11,  12, 185, 184
  4,  12,  13, 186, 185
  5,  13,  14, 187, 186
  6,  14,  15, 188, 187
  7,  15,  16, 189, 188
  8,  16,  17, 190, 189
  9,  17,  18, 191, 190
 10,  18,  19, 192, 191
 11,  19,  20, 193, 192
 12,  20,  21, 194, 193
 13,  21,  22, 195, 194
 14,  22,  23, 196, 195
 15,  23,  24, 197, 196
 16,  24,  25, 198, 197
 17,  25,  26, 199, 198
 18,  26,  27, 200, 199
 19,  27,  28, 201, 200
 20,  28,  29, 202, 201
 21,  29,  30, 203, 202
 22,  30,  31, 204, 203
 23,  31,  32, 205, 204
 24,  32,   2,  33, 205
 25,  75, 183, 206,  74
 26, 183, 184, 207, 206
 27, 184, 185, 208, 207
 28, 185, 186, 209, 208
 29, 186, 187, 210, 209
 30, 187, 188, 211, 210
 31, 188, 189, 212, 211
 32, 189, 190, 213, 212
 33, 190, 191, 214, 213
 34, 191, 192, 215, 214
 35, 192, 193, 216, 215
 36, 193, 194, 217, 216
 37, 194, 195, 218, 217
 38, 195, 196, 219, 218
 39, 196, 197, 220, 219
 40, 197, 198, 221, 220
 41, 198, 199, 222, 221
 42, 199, 200, 223, 222
 43, 200, 201, 224, 223
 44, 201, 202, 225, 224
 45, 202, 203, 226, 225
 46, 203, 204, 227, 226
 47, 204, 205, 228, 227
 48, 205,  33,  34, 228
 49,  74, 206, 229,  73
 50, 206, 207, 230, 229
 51, 207, 208, 231, 230
 52, 208, 209, 232, 231
 53, 209, 210, 233, 232
 54, 210, 211, 234, 233
 55, 211, 212, 235, 234
 56, 212, 213, 236, 235
 57, 213, 214, 237, 236
 58, 214, 215, 238, 237
 59, 215, 216, 239, 238
 60, 216, 217, 240, 239
 61, 217, 218, 241, 240
 62, 218, 219, 242, 241
 63, 219, 220, 243, 242
 64, 220, 221, 244, 243
 65, 221, 222, 245, 244
 66, 222, 223, 246, 245
 67, 223, 224, 247, 246
 68, 224, 225, 248, 247
 69, 225, 226, 249, 248
 70, 226, 227, 250, 249
 71, 227, 228, 251, 250
 72, 228,  34,  35, 251
 73,  73, 229, 252,  72
 74, 229, 230, 253, 252
 75, 230, 231, 254, 253
 76, 231, 232, 255, 254
 77, 232, 233, 256, 255
 78, 233, 234, 257, 256
 79, 234, 235, 258, 257
 80, 235, 236, 259, 258
 81, 236, 237, 260, 259
 82, 237, 238, 261, 260
 83, 238, 239, 262, 261
 84, 239, 240, 263, 262
 85, 240, 241, 264, 263
 86, 241, 242, 265, 264
 87, 242, 243, 266, 265
 88, 243, 244, 267, 266
 89, 244, 245, 268, 267
 90, 245, 246, 269, 268
 91, 246, 247, 270, 269
 92, 247, 248, 271, 270
 93, 248, 249, 272, 271
 94, 249, 250, 273, 272
 95, 250, 251, 274, 273
 96, 251,  35,  36, 274
 97,  72, 252, 275,  71
 98, 252, 253, 276, 275
 99, 253, 254, 277, 276
100, 254, 255, 278, 277
101, 255, 256, 279, 278
102, 256, 257, 280, 279
103, 257, 258, 281, 280
104, 258, 259, 282, 281
105, 259, 260, 283, 282
106, 260, 261, 284, 283
107, 261, 262, 285, 284
108, 262, 263, 286, 285
109, 263, 264, 287, 286
110, 264, 265, 288, 287
111, 265, 266, 289, 288
112, 266, 267, 290, 289
113, 267, 268, 291, 290
114, 268, 269, 292, 291
115, 269, 270, 293, 292
116, 270, 271, 294, 293
117, 271, 272, 295, 294
118, 272, 273, 296, 295
119, 273, 274, 297, 296
120, 274,  36,  37, 297
121,  71, 275, 298,  70
122, 275, 276, 299, 298
123, 276, 277, 300, 299
124, 277, 278, 301, 300
125, 278, 279, 302, 301
126, 279, 280, 303, 302
127, 280, 281, 304, 303
128, 281, 282, 305, 304
129, 282, 283, 306, 305
130, 283, 284, 307, 306
131, 284, 285, 308, 307
132, 285, 286, 309, 308
133, 286, 287, 310, 309
134, 287, 288, 311, 310
135, 288, 289, 312, 311
136, 289, 290, 313, 312
137, 290, 291, 314, 313
138, 291, 292, 315, 314
139, 292, 293, 316, 315
140, 293, 294, 317, 316
141, 294, 295, 318, 317
142, 295, 296, 319, 318
143, 296, 297, 320, 319
144, 297,  37,  38, 320
145,  70, 298, 321,  69
146, 298, 299, 322, 321
147, 299, 300, 323, 322
148, 300, 301, 324, 323
149, 301, 302, 325, 324
150, 302, 303, 326, 325
151, 303, 304, 327, 326
152, 304, 305, 328, 327
153, 305, 306, 329, 328
154, 306, 307, 330, 329
155, 307, 308, 331, 330
156, 308, 309, 332, 331
157, 309, 310, 333, 332
158, 310, 311, 334, 333
159, 311, 312, 335, 334
160, 312, 313, 336, 335
161, 313, 314, 337, 336
162, 314, 315, 338, 337
163, 315, 316, 339, 338
164, 316, 317, 340, 339
165, 317, 318, 341, 340
166, 318, 319, 342, 341
167, 319, 320, 343, 342
168, 320,  38,  39, 343
169,  69, 321, 344,  68
170, 321, 322, 345, 344
171, 322, 323, 346, 345
172, 323, 324, 347, 346
173, 324, 325, 348, 347
174, 325, 326, 349, 348
175, 326, 327, 350, 349
176, 327, 328, 351, 350
177, 328, 329, 352, 351
178, 329, 330, 353, 352
179, 330, 331, 354, 353
180, 331, 332, 355, 354
181, 332, 333, 356, 355
182, 333, 334, 357, 356
183, 334, 335, 358, 357
184, 335, 336, 359, 358
185, 336, 337, 360, 359
186, 337, 338, 361, 360
187, 338, 339, 362, 361
188, 339, 340, 363, 362
189, 340, 341, 364, 363
190, 341, 342, 365, 364
191, 342, 343, 366, 365
192, 343,  39,  40, 366
193,  68, 344, 367,  67
194, 344, 345, 368, 367
195, 345, 346, 369, 368
196, 346, 347, 370, 369
197, 347, 348, 371, 370
198, 348, 349, 372, 371
199, 349, 350, 373, 372
200, 350, 351, 374, 373
201, 351, 352, 375, 374
202, 352, 353, 376, 375
203, 353, 354, 377, 376
204, 354, 355, 378, 377
205, 355, 356, 379, 378
206, 356, 357, 380, 379
207, 357, 358, 381, 380
208, 358, 359, 382, 381
209, 359, 360, 383, 382
210, 360, 361, 384, 383
211, 361, 362, 385, 384
212, 362, 363, 386, 385
213, 363, 364, 387, 386
214, 364, 365, 388, 387
215, 365, 366, 389, 388
216, 366,  40,  41, 389
217,  67, 367, 390,  66
218, 367, 368, 391, 390
219, 368, 369, 392, 391
220, 369, 370, 393, 392
221, 370, 371, 394, 393
222, 371, 372, 395, 394
223, 372, 373, 396, 395
224, 373, 374, 397, 396
225, 374, 375, 398, 397
226, 375, 376, 399, 398
227, 376, 377, 400, 399
228, 377, 378, 401, 400
229, 378, 379, 402, 401
230, 379, 380, 403, 402
231, 380, 381, 404, 403
232, 381, 382, 405, 404
233, 382, 383, 406, 405
234, 383, 384, 407, 406
235, 384, 385, 408, 407
236, 385, 386, 409, 408
237, 386, 387, 410, 409
238, 387, 388, 411, 410
239, 388, 389, 412, 411
240, 389,  41,  42, 412
241,  66, 390,  65,   4
242, 390, 391,  64,  65
243, 391, 392,  63,  64
244, 392, 393,  62,  63
245, 393, 394,  61,  62
246, 394, 395,  60,  61
247, 395, 396,  59,  60
248, 396, 397,  58,  59
249, 397, 398,  57,  58
250, 398, 399,  56,  57
251, 399, 400,  55,  56
252, 400, 401,  54,  55
253, 401, 402,  53,  54
254, 402, 403,  52,  53
255, 403, 404,  51,  52
256, 404, 405,  50,  51
257, 405, 406,  49,  50
258, 406, 407,  48,  49
259, 407, 408,  47,  48
260, 408, 409,  46,  47
261, 409, 410,  45,  46
262, 410, 411,  44,  45
263, 411, 412,  43,  44
264, 412,  42,   3,  43
265,   2,  32, 413, 119
266,  32,  31, 414, 413
267,  31,  30, 415, 414
268,  30,  29, 416, 415
269,  29,  28, 417, 416
270,  28,  27, 418, 417
271,  27,  26, 419, 418
272,  26,  25, 420, 419
273,  25,  24, 421, 420
274,  24,  23, 422, 421
275,  23,  22, 423, 422
276,  22,  21, 424, 423
277,  21,  20, 425, 424
278,  20,  19, 426, 425
279,  19,  18, 427, 426
280,  18,  17, 428, 427
281,  17,  16, 429, 428
282,  16,  15, 430, 429
283,  15,  14, 431, 430
284,  14,  13, 432, 431
285,  13,  12, 433, 432
286,  12,  11, 434, 433
287,  11,  10, 435, 434
288,  10,   1,  76, 435
289, 119, 413, 436, 118
290, 413, 414, 437, 436
291, 414, 415, 438, 437
292, 415, 416, 439, 438
293, 416, 417, 440, 439
294, 417, 418, 441, 440
295, 418, 419, 442, 441
296, 419, 420, 443, 442
297, 420, 421, 444, 443
298, 421, 422, 445, 444
299, 422, 423, 446, 445
300, 423, 424, 447, 446
301, 424, 425, 448, 447
302, 425, 426, 449, 448
303, 426, 427, 450, 449
304, 427, 428, 451, 450
305, 428, 429, 452, 451
306, 429, 430, 453, 452
307, 430, 431, 454, 453
308, 431, 432, 455, 454
309, 432, 433, 456, 455
310, 433, 434, 457, 456
311, 434, 435, 458, 457
312, 435,  76,  77, 458
313, 118, 436, 459, 117
314, 436, 437, 460, 459
315, 437, 438, 461, 460
316, 438, 439, 462, 461
317, 439, 440, 463, 462
318, 440, 441, 464, 463
319, 441, 442, 465, 464
320, 442, 443, 466, 465
321, 443, 444, 467, 466
322, 444, 445, 468, 467
323, 445, 446, 469, 468
324, 446, 447, 470, 469
325, 447, 448, 471, 470
326, 448, 449, 472, 471
327, 449, 450, 473, 472
328, 450, 451, 474, 473
329, 451, 452, 475, 474
330, 452, 453, 476, 475
331, 453, 454, 477, 476
332, 454, 455, 478, 477
333, 455, 456, 479, 478
334, 456, 457, 480, 479
335, 457, 458, 481, 480
336, 458,  77,  78, 481
337, 117, 459, 482, 116
338, 459, 460, 483, 482
339, 460, 461, 484, 483
340, 461, 462, 485, 484
341, 462, 463, 486, 485
342, 463, 464, 487, 486
343, 464, 465, 488, 487
344, 465, 466, 489, 488
345, 466, 467, 490, 489
346, 467, 468, 491, 490
347, 468, 469, 492, 491
348, 469, 470, 493, 492
349, 470, 471, 494, 493
350, 471, 472, 495, 494
351, 472, 473, 496, 495
352, 473, 474, 497, 496
353, 474, 475, 498, 497
354, 475, 476, 499, 498
355, 476, 477, 500, 499
356, 477, 478, 501, 500
357, 478, 479, 502, 501
358, 479, 480, 503, 502
359, 480, 481, 504, 503
360, 481,  78,  79, 504
361, 116, 482, 505, 115
362, 482, 483, 506, 505
363, 483, 484, 507, 506
364, 484, 485, 508, 507
365, 485, 486, 509, 508
366, 486, 487, 510, 509
367, 487, 488, 511, 510
368, 488, 489, 512, 511
369, 489, 490, 513, 512
370, 490, 491, 514, 513
371, 491, 492, 515, 514
372, 492, 493, 516, 515
373, 493, 494, 517, 516
374, 494, 495, 518, 517
375, 495, 496, 519, 518
376, 496, 497, 520, 519
377, 497, 498, 521, 520
378, 498, 499, 522, 521
379, 499, 500, 523, 522
380, 500, 501, 524, 523
381, 501, 502, 525, 524
382, 502, 503, 526, 525
383, 503, 504, 527, 526
384, 504,  79,  80, 527
385, 115, 505, 528, 114
386, 505, 506, 529, 528
387, 506, 507, 530, 529
388, 507, 508, 531, 530
389, 508, 509, 532, 531
390, 509, 510, 533, 532
391, 510, 511, 534, 533
392, 511, 512, 535, 534
393, 512, 513, 536, 535
394, 513, 514, 537, 536
395, 514, 515, 538, 537
396, 515, 516, 539, 538
397, 516, 517, 540, 539
398, 517, 518, 541, 540
399, 518, 519, 542, 541
400, 519, 520, 543, 542
401, 520, 521, 544, 543
402, 521, 522, 545, 544
403, 522, 523, 546, 545
404, 523, 524, 547, 546
405, 524, 525, 548, 547
406, 525, 526, 549, 548
407, 526, 527, 550, 549
408, 527,  80,   5, 550
409, 114, 528, 551, 113
410, 528, 529, 552, 551
411, 529, 530, 553, 552
412, 530, 531, 554, 553
413, 531, 532, 555, 554
414, 532, 533, 556, 555
415, 533, 534, 557, 556
416, 534, 535, 558, 557
417, 535, 536, 559, 558
418, 536, 537, 560, 559
419, 537, 538, 561, 560
420, 538, 539, 562, 561
421, 539, 540, 563, 562
422, 540, 541, 564, 563
423, 541, 542, 565, 564
424, 542, 543, 566, 565
425, 543, 544, 567, 566
426, 544, 545, 568, 567
427, 545, 546, 569, 568
428, 546, 547, 570, 569
429, 547, 548, 571, 570
430, 548, 549, 572, 571
431, 549, 550, 573, 572
432, 550,   5,  81, 573
433, 113, 551, 574, 112
434, 551, 552, 575, 574
435, 552, 553, 576, 575
436, 553, 554, 577, 576
437, 554, 555, 578, 577
438, 555, 556, 579, 578
439, 556, 557, 580, 579
440, 557, 558, 581, 580
441, 558, 559, 582, 581
442, 559, 560, 583, 582
443, 560, 561, 584, 583
444, 561, 562, 585, 584
445, 562, 563, 586, 585
446, 563, 564, 587, 586
447, 564, 565, 588, 587
448, 565, 566, 589, 588
449, 566, 567, 590, 589
450, 567, 568, 591, 590
451, 568, 569, 592, 591
452, 569, 570, 593, 592
453, 570, 571, 594, 593
454, 571, 572, 595, 594
455, 572, 573, 596, 595
456, 573,  81,  82, 596
457, 112, 574, 597, 111
458, 574, 575, 598, 597
459, 575, 576, 599, 598
460, 576, 577, 600, 599
461, 577, 578, 601, 600
462, 578, 579, 602, 601
463, 579, 580, 603, 602
464, 580, 581, 604, 603
465, 581, 582, 605, 604
466, 582, 583, 606, 605
467, 583, 584, 607, 606
468, 584, 585, 608, 607
469, 585, 586, 609, 608
470, 586, 587, 610, 609
471, 587, 588, 611, 610
472, 588, 589, 612, 611
473, 589, 590, 613, 612
474, 590, 591, 614, 613
475, 591, 592, 615, 614
476, 592, 593, 616, 615
477, 593, 594, 617, 616
478, 594, 595, 618, 617
479, 595, 596, 619, 618
480, 596,  82,  83, 619
481, 111, 597, 620, 110
482, 597, 598, 621, 620
483, 598, 599, 622, 621
484, 599, 600, 623, 622
485, 600, 601, 624, 623
486, 601, 602, 625, 624
487, 602, 603, 626, 625
488, 603, 604, 627, 626
489, 604, 605, 628, 627
490, 605, 606, 629, 628
491, 606, 607, 630, 629
492, 607, 608, 631, 630
493, 608, 609, 632, 631
494, 609, 610, 633, 632
495, 610, 611, 634, 633
496, 611, 612, 635, 634
497, 612, 613, 636, 635
498, 613, 614, 637, 636
499, 614, 615, 638, 637
500, 615, 616, 639, 638
501, 616, 617, 640, 639
502, 617, 618, 641, 640
503, 618, 619, 642, 641
504, 619,  83,  84, 642
505, 110, 620, 643, 109
506, 620, 621, 644, 643
507, 621, 622, 645, 644
508, 622, 623, 646, 645
509, 623, 624, 647, 646
510, 624, 625, 648, 647
511, 625, 626, 649, 648
512, 626, 627, 650, 649
513, 627, 628, 651, 650
514, 628, 629, 652, 651
515, 629, 630, 653, 652
516, 630, 631, 654, 653
517, 631, 632, 655, 654
518, 632, 633, 656, 655
519, 633, 634, 657, 656
520, 634, 635, 658, 657
521, 635, 636, 659, 658
522, 636, 637, 660, 659
523, 637, 638, 661, 660
524, 638, 639, 662, 661
525, 639, 640, 663, 662
526, 640, 641, 664, 663
527, 641, 642, 665, 664
528, 642,  84,  85, 665
529, 109, 643, 108,   7
530, 643, 644, 107, 108
531, 644, 645, 106, 107
532, 645, 646, 105, 106
533, 646, 647, 104, 105
534, 647, 648, 103, 104
535, 648, 649, 102, 103
536, 649, 650, 101, 102
537, 650, 651, 100, 101
538, 651, 652,  99, 100
539, 652, 653,  98,  99
540, 653, 654,  97,  98
541, 654, 655,  96,  97
542, 655, 656,  95,  96
543, 656, 657,  94,  95
544, 657, 658,  93,  94
545, 658, 659,  92,  93
546, 659, 660,  91,  92
547, 660, 661,  90,  91
548, 661, 662,  89,  90
549, 662, 663,  88,  89
550, 663, 664,  87,  88
551, 664, 665,  86,  87
552, 665,  85,   6,  86
553,   8, 120, 666, 162
554, 120, 121, 667, 666
555, 121, 122, 668, 667
556, 122, 123, 669, 668
557, 123, 124, 670, 669
558, 124, 125, 671, 670
559, 125, 126, 672, 671
560, 126, 127, 673, 672
561, 127, 128, 674, 673
562, 128, 129, 675, 674
563, 129, 130, 676, 675
564, 130, 131, 677, 676
565, 131, 132, 678, 677
566, 132, 133, 679, 678
567, 133, 134, 680, 679
568, 134, 135, 681, 680
569, 135, 136, 682, 681
570, 136, 137, 683, 682
571, 137, 138, 684, 683
572, 138, 139, 685, 684
573, 139, 140, 686, 685
574, 140, 141, 687, 686
575, 141, 142, 688, 687
576, 142,   9, 143, 688
577, 162, 666, 689, 161
578, 666, 667, 690, 689
579, 667, 668, 691, 690
580, 668, 669, 692, 691
581, 669, 670, 693, 692
582, 670, 671, 694, 693
583, 671, 672, 695, 694
584, 672, 673, 696, 695
585, 673, 674, 697, 696
586, 674, 675, 698, 697
587, 675, 676, 699, 698
588, 676, 677, 700, 699
589, 677, 678, 701, 700
590, 678, 679, 702, 701
591, 679, 680, 703, 702
592, 680, 681, 704, 703
593, 681, 682, 705, 704
594, 682, 683, 706, 705
595, 683, 684, 707, 706
596, 684, 685, 708, 707
597, 685, 686, 709, 708
598, 686, 687, 710, 709
599, 687, 688, 711, 710
600, 688, 143, 144, 711
601, 161, 689, 712, 160
602, 689, 690, 713, 712
603, 690, 691, 714, 713
604, 691, 692, 715, 714
605, 692, 693, 716, 715
606, 693, 694, 717, 716
607, 694, 695, 718, 717
608, 695, 696, 719, 718
609, 696, 697, 720, 719
610, 697, 698, 721, 720
611, 698, 699, 722, 721
612, 699, 700, 723, 722
613, 700, 701, 724, 723
614, 701, 702, 725, 724
615, 702, 703, 726, 725
616, 703, 704, 727, 726
617, 704, 705, 728, 727
618, 705, 706, 729, 728
619, 706, 707, 730, 729
620, 707, 708, 731, 730
621, 708, 709, 732, 731
622, 709, 710, 733, 732
623, 710, 711, 734, 733
624, 711, 144, 145, 734
625, 160, 712, 735, 159
626, 712, 713, 736, 735
627, 713, 714, 737, 736
628, 714, 715, 738, 737
629, 715, 716, 739, 738
630, 716, 717, 740, 739
631, 717, 718, 741, 740
632, 718, 719, 742, 741
633, 719, 720, 743, 742
634, 720, 721, 744, 743
635, 721, 722, 745, 744
636, 722, 723, 746, 745
637, 723, 724, 747, 746
638, 724, 725, 748, 747
639, 725, 726, 749, 748
640, 726, 727, 750, 749
641, 727, 728, 751, 750
642, 728, 729, 752, 751
643, 729, 730, 753, 752
644, 730, 731, 754, 753
645, 731, 732, 755, 754
646, 732, 733, 756, 755
647, 733, 734, 757, 756
648, 734, 145, 146, 757
649, 159, 735, 758, 158
650, 735, 736, 759, 758
651, 736, 737, 760, 759
652, 737, 738, 761, 760
653, 738, 739, 762, 761
654, 739, 740, 763, 762
655, 740, 741, 764, 763
656, 741, 742, 765, 764
657, 742, 743, 766, 765
658, 743, 744, 767, 766
659, 744, 745, 768, 767
660, 745, 746, 769, 768
661, 746, 747, 770, 769
662, 747, 748, 771, 770
663, 748, 749, 772, 771
664, 749, 750, 773, 772
665, 750, 751, 774, 773
666, 751, 752, 775, 774
667, 752, 753, 776, 775
668, 753, 754, 777, 776
669, 754, 755, 778, 777
670, 755, 756, 779, 778
671, 756, 757, 780, 779
672, 757, 146, 147, 780
673, 158, 758, 781, 157
674, 758, 759, 782, 781
675, 759, 760, 783, 782
676, 760, 761, 784, 783
677, 761, 762, 785, 784
678, 762, 763, 786, 785
679, 763, 764, 787, 786
680, 764, 765, 788, 787
681, 765, 766, 789, 788
682, 766, 767, 790, 789
683, 767, 768, 791, 790
684, 768, 769, 792, 791
685, 769, 770, 793, 792
686, 770, 771, 794, 793
687, 771, 772, 795, 794
688, 772, 773, 796, 795
689, 773, 774, 797, 796
690, 774, 775, 798, 797
691, 775, 776, 799, 798
692, 776, 777, 800, 799
693, 777, 778, 801, 800
694, 778, 779, 802, 801
695, 779, 780, 803, 802
696, 780, 147, 148, 803
697, 157, 781, 804, 156
698, 781, 782, 805, 804
699, 782, 783, 806, 805
700, 783, 784, 807, 806
701, 784, 785, 808, 807
702, 785, 786, 809, 808
703, 786, 787, 810, 809
704, 787, 788, 811, 810
705, 788, 789, 812, 811
706, 789, 790, 813, 812
707, 790, 791, 814, 813
708, 791, 792, 815, 814
709, 792, 793, 816, 815
710, 793, 794, 817, 816
711, 794, 795, 818, 817
712, 795, 796, 819, 818
713, 796, 797, 820, 819
714, 797, 798, 821, 820
715, 798, 799, 822, 821
716, 799, 800, 823, 822
717, 800, 801, 824, 823
718, 801, 802, 825, 824
719, 802, 803, 826, 825
720, 803, 148, 149, 826
721, 156, 804, 827, 155
722, 804, 805, 828, 827
723, 805, 806, 829, 828
724, 806, 807, 830, 829
725, 807, 808, 831, 830
726, 808, 809, 832, 831
727, 809, 810, 833, 832
728, 810, 811, 834, 833
729, 811, 812, 835, 834
730, 812, 813, 836, 835
731, 813, 814, 837, 836
732, 814, 815, 838, 837
733, 815, 816, 839, 838
734, 816, 817, 840, 839
735, 817, 818, 841, 840
736, 818, 819, 842, 841
737, 819, 820, 843, 842
738, 820, 821, 844, 843
739, 821, 822, 845, 844
740, 822, 823, 846, 845
741, 823, 824, 847, 846
742, 824, 825, 848, 847
743, 825, 826, 849, 848
744, 826, 149, 150, 849
745, 155, 827, 850, 154
746, 827, 828, 851, 850
747, 828, 829, 852, 851
748, 829, 830, 853, 852
749, 830, 831, 854, 853
750, 831, 832, 855, 854
751, 832, 833, 856, 855
752, 833, 834, 857, 856
753, 834, 835, 858, 857
754, 835, 836, 859, 858
755, 836, 837, 860, 859
756, 837, 838, 861, 860
757, 838, 839, 862, 861
758, 839, 840, 863, 862
759, 840, 841, 864, 863
760, 841, 842, 865, 864
761, 842, 843, 866, 865
762, 843, 844, 867, 866
763, 844, 845, 868, 867
764, 845, 846, 869, 868
765, 846, 847, 870, 869
766, 847, 848, 871, 870
767, 848, 849, 872, 871
768, 849, 150, 151, 872
769, 154, 850, 873, 153
770, 850, 851, 874, 873
771, 851, 852, 875, 874
772, 852, 853, 876, 875
773, 853, 854, 877, 876
774, 854, 855, 878, 877
775, 855, 856, 879, 878
776, 856, 857, 880, 879
777, 857, 858, 881, 880
778, 858, 859, 882, 881
779, 859, 860, 883, 882
780, 860, 861, 884, 883
781, 861, 862, 885, 884
782, 862, 863, 886, 885
783, 863, 864, 887, 886
784, 864, 865, 888, 887
785, 865, 866, 889, 888
786, 866, 867, 890, 889
787, 867, 868, 891, 890
788, 868, 869, 892, 891
789, 869, 870, 893, 892
790, 870, 871, 894, 893
791, 871, 872, 895, 894
792, 872, 151, 152, 895
793, 153, 873,  43,   3
794, 873, 874,  44,  43
795, 874, 875,  45,  44
796, 875, 876,  46,  45
797, 876, 877,  47,  46
798, 877, 878,  48,  47
799, 878, 879,  49,  48
800, 879, 880,  50,  49
801, 880, 881,  51,  50
802, 881, 882,  52,  51
803, 882, 883,  53,  52
804, 883, 884,  54,  53
805, 884, 885,  55,  54
806, 885, 886,  56,  55
807, 886, 887,  57,  56
808, 887, 888,  58,  57
809, 888, 889,  59,  58
810, 889, 890,  60,  59
811, 890, 891,  61,  60
812, 891, 892,  62,  61
813, 892, 893,  63,  62
814, 893, 894,  64,  63
815, 894, 895,  65,  64
816, 895, 152,   4,  65
 817,    9,  142,  896,  182
 818,  142,  141,  897,  896
 819,  141,  140,  898,  897
 820,  140,  139,  899,  898
 821,  139,  138,  900,  899
 822,  138,  137,  901,  900
 823,  137,  136,  902,  901
 824,  136,  135,  903,  902
 825,  135,  134,  904,  903
 826,  134,  133,  905,  904
 827,  133,  132,  906,  905
 828,  132,  131,  907,  906
 829,  131,  130,  908,  907
 830,  130,  129,  909,  908
 831,  129,  128,  910,  909
 832,  128,  127,  911,  910
 833,  127,  126,  912,  911
 834,  126,  125,  913,  912
 835,  125,  124,  914,  913
 836,  124,  123,  915,  914
 837,  123,  122,  916,  915
 838,  122,  121,  917,  916
 839,  121,  120,  918,  917
 840,  120,    8,  163,  918
 841,  182,  896,  919,  181
 842,  896,  897,  920,  919
 843,  897,  898,  921,  920
 844,  898,  899,  922,  921
 845,  899,  900,  923,  922
 846,  900,  901,  924,  923
 847,  901,  902,  925,  924
 848,  902,  903,  926,  925
 849,  903,  904,  927,  926
 850,  904,  905,  928,  927
 851,  905,  906,  929,  928
 852,  906,  907,  930,  929
 853,  907,  908,  931,  930
 854,  908,  909,  932,  931
 855,  909,  910,  933,  932
 856,  910,  911,  934,  933
 857,  911,  912,  935,  934
 858,  912,  913,  936,  935
 859,  913,  914,  937,  936
 860,  914,  915,  938,  937
 861,  915,  916,  939,  938
 862,  916,  917,  940,  939
 863,  917,  918,  941,  940
 864,  918,  163,  164,  941
 865,  181,  919,  942,  180
 866,  919,  920,  943,  942
 867,  920,  921,  944,  943
 868,  921,  922,  945,  944
 869,  922,  923,  946,  945
 870,  923,  924,  947,  946
 871,  924,  925,  948,  947
 872,  925,  926,  949,  948
 873,  926,  927,  950,  949
 874,  927,  928,  951,  950
 875,  928,  929,  952,  951
 876,  929,  930,  953,  952
 877,  930,  931,  954,  953
 878,  931,  932,  955,  954
 879,  932,  933,  956,  955
 880,  933,  934,  957,  956
 881,  934,  935,  958,  957
 882,  935,  936,  959,  958
 883,  936,  937,  960,  959
 884,  937,  938,  961,  960
 885,  938,  939,  962,  961
 886,  939,  940,  963,  962
 887,  940,  941,  964,  963
 888,  941,  164,  165,  964
 889,  180,  942,  965,  179
 890,  942,  943,  966,  965
 891,  943,  944,  967,  966
 892,  944,  945,  968,  967
 893,  945,  946,  969,  968
 894,  946,  947,  970,  969
 895,  947,  948,  971,  970
 896,  948,  949,  972,  971
 897,  949,  950,  973,  972
 898,  950,  951,  974,  973
 899,  951,  952,  975,  974
 900,  952,  953,  976,  975
 901,  953,  954,  977,  976
 902,  954,  955,  978,  977
 903,  955,  956,  979,  978
 904,  956,  957,  980,  979
 905,  957,  958,  981,  980
 906,  958,  959,  982,  981
 907,  959,  960,  983,  982
 908,  960,  961,  984,  983
 909,  961,  962,  985,  984
 910,  962,  963,  986,  985
 911,  963,  964,  987,  986
 912,  964,  165,  166,  987
 913,  179,  965,  988,  178
 914,  965,  966,  989,  988
 915,  966,  967,  990,  989
 916,  967,  968,  991,  990
 917,  968,  969,  992,  991
 918,  969,  970,  993,  992
 919,  970,  971,  994,  993
 920,  971,  972,  995,  994
 921,  972,  973,  996,  995
 922,  973,  974,  997,  996
 923,  974,  975,  998,  997
 924,  975,  976,  999,  998
 925,  976,  977, 1000,  999
 926,  977,  978, 1001, 1000
 927,  978,  979, 1002, 1001
 928,  979,  980, 1003, 1002
 929,  980,  981, 1004, 1003
 930,  981,  982, 1005, 1004
 931,  982,  983, 1006, 1005
 932,  983,  984, 1007, 1006
 933,  984,  985, 1008, 1007
 934,  985,  986, 1009, 1008
 935,  986,  987, 1010, 1009
 936,  987,  166,  167, 1010
 937,  178,  988, 1011,  177
 938,  988,  989, 1012, 1011
 939,  989,  990, 1013, 1012
 940,  990,  991, 1014, 1013
 941,  991,  992, 1015, 1014
 942,  992,  993, 1016, 1015
 943,  993,  994, 1017, 1016
 944,  994,  995, 1018, 1017
 945,  995,  996, 1019, 1018
 946,  996,  997, 1020, 1019
 947,  997,  998, 1021, 1020
 948,  998,  999, 1022, 1021
 949,  999, 1000, 1023, 1022
 950, 1000, 1001, 1024, 1023
 951, 1001, 1002, 1025, 1024
 952, 1002, 1003, 1026, 1025
 953, 1003, 1004, 1027, 1026
 954, 1004, 1005, 1028, 1027
 955, 1005, 1006, 1029, 1028
 956, 1006, 1007, 1030, 1029
 957, 1007, 1008, 1031, 1030
 958, 1008, 1009, 1032, 1031
 959, 1009, 1010, 1033, 1032
 960, 1010,  167,  168, 1033
 961,  177, 1011, 1034,  176
 962, 1011, 1012, 1035, 1034
 963, 1012, 1013, 1036, 1035
 964, 1013, 1014, 1037, 1036
 965, 1014, 1015, 1038, 1037
 966, 1015, 1016, 1039, 1038
 967, 1016, 1017, 1040, 1039
 968, 1017, 1018, 1041, 1040
 969, 1018, 1019, 1042, 1041
 970, 1019, 1020, 1043, 1042
 971, 1020, 1021, 1044, 1043
 972, 1021, 1022, 1045, 1044
 973, 1022, 1023, 1046, 1045
 974, 1023, 1024, 1047, 1046
 975, 1024, 1025, 1048, 1047
 976, 1025, 1026, 1049, 1048
 977, 1026, 1027, 1050, 1049
 978, 1027, 1028, 1051, 1050
 979, 1028, 1029, 1052, 1051
 980, 1029, 1030, 1053, 1052
 981, 1030, 1031, 1054, 1053
 982, 1031, 1032, 1055, 1054
 983, 1032, 1033, 1056, 1055
 984, 1033,  168,  169, 1056
 985,  176, 1034, 1057,  175
 986, 1034, 1035, 1058, 1057
 987, 1035, 1036, 1059, 1058
 988, 1036, 1037, 1060, 1059
 989, 1037, 1038, 1061, 1060
 990, 1038, 1039, 1062, 1061
 991, 1039, 1040, 1063, 1062
 992, 1040, 1041, 1064, 1063
 993, 1041, 1042, 1065, 1064
 994, 1042, 1043, 1066, 1065
 995, 1043, 1044, 1067, 1066
 996, 1044, 1045, 1068, 1067
 997, 1045, 1046, 1069, 1068
 998, 1046, 1047, 1070, 1069
 999, 1047, 1048, 1071, 1070
1000, 1048, 1049, 1072, 1071
1001, 1049, 1050, 1073, 1072
1002, 1050, 1051, 1074, 1073
1003, 1051, 1052, 1075, 1074
1004, 1052, 1053, 1076, 1075
1005, 1053, 1054, 1077, 1076
1006, 1054, 1055, 1078, 1077
1007, 1055, 1056, 1079, 1078
1008, 1056,  169,  170, 1079
1009,  175, 1057, 1080,  174
1010, 1057, 1058, 1081, 1080
1011, 1058, 1059, 1082, 1081
1012, 1059, 1060, 1083, 1082
1013, 1060, 1061, 1084, 1083
1014, 1061, 1062, 1085, 1084
1015, 1062, 1063, 1086, 1085
1016, 1063, 1064, 1087, 1086
1017, 1064, 1065, 1088, 1087
1018, 1065, 1066, 1089, 1088
1019, 1066, 1067, 1090, 1089
1020, 1067, 1068, 1091, 1090
1021, 1068, 1069, 1092, 1091
1022, 1069, 1070, 1093, 1092
1023, 1070, 1071, 1094, 1093
1024, 1071, 1072, 1095, 1094
1025, 1072, 1073, 1096, 1095
1026, 1073, 1074, 1097, 1096
1027, 1074, 1075, 1098, 1097
1028, 1075, 1076, 1099, 1098
1029, 1076, 1077, 1100, 1099
1030, 1077, 1078, 1101, 1100
1031, 1078, 1079, 1102, 1101
1032, 1079,  170,  171, 1102
1033,  174, 1080, 1103,  173
1034, 1080, 1081, 1104, 1103
1035, 1081, 1082, 1105, 1104
1036, 1082, 1083, 1106, 1105
1037, 1083, 1084, 1107, 1106
1038, 1084, 1085, 1108, 1107
1039, 1085, 1086, 1109, 1108
1040, 1086, 1087, 1110, 1109
1041, 1087, 1088, 1111, 1110
1042, 1088, 1089, 1112, 1111
1043, 1089, 1090, 1113, 1112
1044, 1090, 1091, 1114, 1113
1045, 1091, 1092, 1115, 1114
1046, 1092, 1093, 1116, 1115
1047, 1093, 1094, 1117, 1116
1048, 1094, 1095, 1118, 1117
1049, 1095, 1096, 1119, 1118
1050, 1096, 1097, 1120, 1119
1051, 1097, 1098, 1121, 1120
1052, 1098, 1099, 1122, 1121
1053, 1099, 1100, 1123, 1122
1054, 1100, 1101, 1124, 1123
1055, 1101, 1102, 1125, 1124
1056, 1102,  171,  172, 1125
1057,  173, 1103,   86,    6
1058, 1103, 1104,   87,   86
1059, 1104, 1105,   88,   87
1060, 1105, 1106,   89,   88
1061, 1106, 1107,   90,   89
1062, 1107, 1108,   91,   90
1063, 1108, 1109,   92,   91
1064, 1109, 1110,   93,   92
1065, 1110, 1111,   94,   93
1066, 1111, 1112,   95,   94
1067, 1112, 1113,   96,   95
1068, 1113, 1114,   97,   96
1069, 1114, 1115,   98,   97
1070, 1115, 1116,   99,   98
1071, 1116, 1117,  100,   99
1072, 1117, 1118,  101,  100
1073, 1118, 1119,  102,  101
1074, 1119, 1120,  103,  102
1075, 1120, 1121,  104,  103
1076, 1121, 1122,  105,  104
1077, 1122, 1123,  106,  105
1078, 1123, 1124,  107,  106
1079, 1124, 1125,  108,  107
1080, 1125,  172,    7,  108
*Nset, nset=Part-1-1_Set-1, generate
    1,  1125,     1
*Elset, elset=Part-1-1_Set-1, generate
    1,  1080,     1
*Nset, nset=Part-1-1_left
   3,   8, 153, 154, 155, 156, 157, 158, 159, 160, 161, 162
*Nset, nset=Part-1-1_left_bottom
 8,
*Elset, elset=_Part-1-1_right_S4, generate
 265,  529,   24
*Surface, type=ELEMENT, name=Part-1-1_right
_Part-1-1_right_S4, S4
** Section: Section-1
*Solid Section, elset=Part-1-1_Set-1, material=Material-1
1.,
*System
** 
** MATERIALS
** 
*Material, name=Material-1
*Elastic
207000., 0.312
** ----------------------------------------------------------------
** 
** STEP: Step-1
** 
*Step, name=Step-1, nlgeom=NO
*Static
1., 1., 1e-05, 1.
** 
** BOUNDARY CONDITIONS
** 
** Name: BC-1 Type: Symmetry/Antisymmetry/Encastre
*Boundary
Part-1-1_left, PINNED
** 
** LOADS
** 
** Name: Load-1   Type: Surface traction
*Dsload
Part-1-1_right, TRVEC, 100., 1., 0., 0.
