*Heading
** Job name: Job-1 Model name: Model-1
** Generated by: Abaqus/CAE 2020
*Preprint, echo=NO, model=NO, history=NO, contact=NO
** ----------------------------------------------------------------
** 
** PART INSTANCE: Part-1-1
** 
*Node
      1,           5.,           5.,         100.
      2,           5.,          2.5,         100.
      3,           5.,           0.,         100.
      4,           5.,         -2.5,         100.
      5,           5.,          -5.,         100.
      6,           5.,           5.,          95.
      7,           5.,          2.5,          95.
      8,           5.,           0.,          95.
      9,           5.,         -2.5,          95.
     10,           5.,          -5.,          95.
     11,           5.,           5.,          90.
     12,           5.,          2.5,          90.
     13,           5.,           0.,          90.
     14,           5.,         -2.5,          90.
     15,           5.,          -5.,          90.
     16,           5.,           5.,          85.
     17,           5.,          2.5,          85.
     18,           5.,           0.,          85.
     19,           5.,         -2.5,          85.
     20,           5.,          -5.,          85.
     21,           5.,           5.,          80.
     22,           5.,          2.5,          80.
     23,           5.,           0.,          80.
     24,           5.,         -2.5,          80.
     25,           5.,          -5.,          80.
     26,           5.,           5.,          75.
     27,           5.,          2.5,          75.
     28,           5.,           0.,          75.
     29,           5.,         -2.5,          75.
     30,           5.,          -5.,          75.
     31,           5.,           5.,          70.
     32,           5.,          2.5,          70.
     33,           5.,           0.,          70.
     34,           5.,         -2.5,          70.
     35,           5.,          -5.,          70.
     36,           5.,           5.,          65.
     37,           5.,          2.5,          65.
     38,           5.,           0.,          65.
     39,           5.,         -2.5,          65.
     40,           5.,          -5.,          65.
     41,           5.,           5.,          60.
     42,           5.,          2.5,          60.
     43,           5.,           0.,          60.
     44,           5.,         -2.5,          60.
     45,           5.,          -5.,          60.
     46,           5.,           5.,          55.
     47,           5.,          2.5,          55.
     48,           5.,           0.,          55.
     49,           5.,         -2.5,          55.
     50,           5.,          -5.,          55.
     51,           5.,           5.,          50.
     52,           5.,          2.5,          50.
     53,           5.,           0.,          50.
     54,           5.,         -2.5,          50.
     55,           5.,          -5.,          50.
     56,           5.,           5.,          45.
     57,           5.,          2.5,          45.
     58,           5.,           0.,          45.
     59,           5.,         -2.5,          45.
     60,           5.,          -5.,          45.
     61,           5.,           5.,          40.
     62,           5.,          2.5,          40.
     63,           5.,           0.,          40.
     64,           5.,         -2.5,          40.
     65,           5.,          -5.,          40.
     66,           5.,           5.,          35.
     67,           5.,          2.5,          35.
     68,           5.,           0.,          35.
     69,           5.,         -2.5,          35.
     70,           5.,          -5.,          35.
     71,           5.,           5.,          30.
     72,           5.,          2.5,          30.
     73,           5.,           0.,          30.
     74,           5.,         -2.5,          30.
     75,           5.,          -5.,          30.
     76,           5.,           5.,          25.
     77,           5.,          2.5,          25.
     78,           5.,           0.,          25.
     79,           5.,         -2.5,          25.
     80,           5.,          -5.,          25.
     81,           5.,           5.,          20.
     82,           5.,          2.5,          20.
     83,           5.,           0.,          20.
     84,           5.,         -2.5,          20.
     85,           5.,          -5.,          20.
     86,           5.,           5.,          15.
     87,           5.,          2.5,          15.
     88,           5.,           0.,          15.
     89,           5.,         -2.5,          15.
     90,           5.,          -5.,          15.
     91,           5.,           5.,          10.
     92,           5.,          2.5,          10.
     93,           5.,           0.,          10.
     94,           5.,         -2.5,          10.
     95,           5.,          -5.,          10.
     96,           5.,           5.,           5.
     97,           5.,          2.5,           5.
     98,           5.,           0.,           5.
     99,           5.,         -2.5,           5.
    100,           5.,          -5.,           5.
    101,           5.,           5.,           0.
    102,           5.,          2.5,           0.
    103,           5.,           0.,           0.
    104,           5.,         -2.5,           0.
    105,           5.,          -5.,           0.
    106,          2.5,           5.,         100.
    107,          2.5,          2.5,         100.
    108,          2.5,           0.,         100.
    109,          2.5,         -2.5,         100.
    110,          2.5,          -5.,         100.
    111,          2.5,           5.,          95.
    112,          2.5,          2.5,          95.
    113,          2.5,           0.,          95.
    114,          2.5,         -2.5,          95.
    115,          2.5,          -5.,          95.
    116,          2.5,           5.,          90.
    117,          2.5,          2.5,          90.
    118,          2.5,           0.,          90.
    119,          2.5,         -2.5,          90.
    120,          2.5,          -5.,          90.
    121,          2.5,           5.,          85.
    122,          2.5,          2.5,          85.
    123,          2.5,           0.,          85.
    124,          2.5,         -2.5,          85.
    125,          2.5,          -5.,          85.
    126,          2.5,           5.,          80.
    127,          2.5,          2.5,          80.
    128,          2.5,           0.,          80.
    129,          2.5,         -2.5,          80.
    130,          2.5,          -5.,          80.
    131,          2.5,           5.,          75.
    132,          2.5,          2.5,          75.
    133,          2.5,           0.,          75.
    134,          2.5,         -2.5,          75.
    135,          2.5,          -5.,          75.
    136,          2.5,           5.,          70.
    137,          2.5,          2.5,          70.
    138,          2.5,           0.,          70.
    139,          2.5,         -2.5,          70.
    140,          2.5,          -5.,          70.
    141,          2.5,           5.,          65.
    142,          2.5,          2.5,          65.
    143,          2.5,           0.,          65.
    144,          2.5,         -2.5,          65.
    145,          2.5,          -5.,          65.
    146,          2.5,           5.,          60.
    147,          2.5,          2.5,          60.
    148,          2.5,           0.,          60.
    149,          2.5,         -2.5,          60.
    150,          2.5,          -5.,          60.
    151,          2.5,           5.,          55.
    152,          2.5,          2.5,          55.
    153,          2.5,           0.,          55.
    154,          2.5,         -2.5,          55.
    155,          2.5,          -5.,          55.
    156,          2.5,           5.,          50.
    157,          2.5,          2.5,          50.
    158,          2.5,           0.,          50.
    159,          2.5,         -2.5,          50.
    160,          2.5,          -5.,          50.
    161,          2.5,           5.,          45.
    162,          2.5,          2.5,          45.
    163,          2.5,           0.,          45.
    164,          2.5,         -2.5,          45.
    165,          2.5,          -5.,          45.
    166,          2.5,           5.,          40.
    167,          2.5,          2.5,          40.
    168,          2.5,           0.,          40.
    169,          2.5,         -2.5,          40.
    170,          2.5,          -5.,          40.
    171,          2.5,           5.,          35.
    172,          2.5,          2.5,          35.
    173,          2.5,           0.,          35.
    174,          2.5,         -2.5,          35.
    175,          2.5,          -5.,          35.
    176,          2.5,           5.,          30.
    177,          2.5,          2.5,          30.
    178,          2.5,           0.,          30.
    179,          2.5,         -2.5,          30.
    180,          2.5,          -5.,          30.
    181,          2.5,           5.,          25.
    182,          2.5,          2.5,          25.
    183,          2.5,           0.,          25.
    184,          2.5,         -2.5,          25.
    185,          2.5,          -5.,          25.
    186,          2.5,           5.,          20.
    187,          2.5,          2.5,          20.
    188,          2.5,           0.,          20.
    189,          2.5,         -2.5,          20.
    190,          2.5,          -5.,          20.
    191,          2.5,           5.,          15.
    192,          2.5,          2.5,          15.
    193,          2.5,           0.,          15.
    194,          2.5,         -2.5,          15.
    195,          2.5,          -5.,          15.
    196,          2.5,           5.,          10.
    197,          2.5,          2.5,          10.
    198,          2.5,           0.,          10.
    199,          2.5,         -2.5,          10.
    200,          2.5,          -5.,          10.
    201,          2.5,           5.,           5.
    202,          2.5,          2.5,           5.
    203,          2.5,           0.,           5.
    204,          2.5,         -2.5,           5.
    205,          2.5,          -5.,           5.
    206,          2.5,           5.,           0.
    207,          2.5,          2.5,           0.
    208,          2.5,           0.,           0.
    209,          2.5,         -2.5,           0.
    210,          2.5,          -5.,           0.
    211,           0.,           5.,         100.
    212,           0.,          2.5,         100.
    213,           0.,           0.,         100.
    214,           0.,         -2.5,         100.
    215,           0.,          -5.,         100.
    216,           0.,           5.,          95.
    217,           0.,          2.5,          95.
    218,           0.,           0.,          95.
    219,           0.,         -2.5,          95.
    220,           0.,          -5.,          95.
    221,           0.,           5.,          90.
    222,           0.,          2.5,          90.
    223,           0.,           0.,          90.
    224,           0.,         -2.5,          90.
    225,           0.,          -5.,          90.
    226,           0.,           5.,          85.
    227,           0.,          2.5,          85.
    228,           0.,           0.,          85.
    229,           0.,         -2.5,          85.
    230,           0.,          -5.,          85.
    231,           0.,           5.,          80.
    232,           0.,          2.5,          80.
    233,           0.,           0.,          80.
    234,           0.,         -2.5,          80.
    235,           0.,          -5.,          80.
    236,           0.,           5.,          75.
    237,           0.,          2.5,          75.
    238,           0.,           0.,          75.
    239,           0.,         -2.5,          75.
    240,           0.,          -5.,          75.
    241,           0.,           5.,          70.
    242,           0.,          2.5,          70.
    243,           0.,           0.,          70.
    244,           0.,         -2.5,          70.
    245,           0.,          -5.,          70.
    246,           0.,           5.,          65.
    247,           0.,          2.5,          65.
    248,           0.,           0.,          65.
    249,           0.,         -2.5,          65.
    250,           0.,          -5.,          65.
    251,           0.,           5.,          60.
    252,           0.,          2.5,          60.
    253,           0.,           0.,          60.
    254,           0.,         -2.5,          60.
    255,           0.,          -5.,          60.
    256,           0.,           5.,          55.
    257,           0.,          2.5,          55.
    258,           0.,           0.,          55.
    259,           0.,         -2.5,          55.
    260,           0.,          -5.,          55.
    261,           0.,           5.,          50.
    262,           0.,          2.5,          50.
    263,           0.,           0.,          50.
    264,           0.,         -2.5,          50.
    265,           0.,          -5.,          50.
    266,           0.,           5.,          45.
    267,           0.,          2.5,          45.
    268,           0.,           0.,          45.
    269,           0.,         -2.5,          45.
    270,           0.,          -5.,          45.
    271,           0.,           5.,          40.
    272,           0.,          2.5,          40.
    273,           0.,           0.,          40.
    274,           0.,         -2.5,          40.
    275,           0.,          -5.,          40.
    276,           0.,           5.,          35.
    277,           0.,          2.5,          35.
    278,           0.,           0.,          35.
    279,           0.,         -2.5,          35.
    280,           0.,          -5.,          35.
    281,           0.,           5.,          30.
    282,           0.,          2.5,          30.
    283,           0.,           0.,          30.
    284,           0.,         -2.5,          30.
    285,           0.,          -5.,          30.
    286,           0.,           5.,          25.
    287,           0.,          2.5,          25.
    288,           0.,           0.,          25.
    289,           0.,         -2.5,          25.
    290,           0.,          -5.,          25.
    291,           0.,           5.,          20.
    292,           0.,          2.5,          20.
    293,           0.,           0.,          20.
    294,           0.,         -2.5,          20.
    295,           0.,          -5.,          20.
    296,           0.,           5.,          15.
    297,           0.,          2.5,          15.
    298,           0.,           0.,          15.
    299,           0.,         -2.5,          15.
    300,           0.,          -5.,          15.
    301,           0.,           5.,          10.
    302,           0.,          2.5,          10.
    303,           0.,           0.,          10.
    304,           0.,         -2.5,          10.
    305,           0.,          -5.,          10.
    306,           0.,           5.,           5.
    307,           0.,          2.5,           5.
    308,           0.,           0.,           5.
    309,           0.,         -2.5,           5.
    310,           0.,          -5.,           5.
    311,           0.,           5.,           0.
    312,           0.,          2.5,           0.
    313,           0.,           0.,           0.
    314,           0.,         -2.5,           0.
    315,           0.,          -5.,           0.
    316,         -2.5,           5.,         100.
    317,         -2.5,          2.5,         100.
    318,         -2.5,           0.,         100.
    319,         -2.5,         -2.5,         100.
    320,         -2.5,          -5.,         100.
    321,         -2.5,           5.,          95.
    322,         -2.5,          2.5,          95.
    323,         -2.5,           0.,          95.
    324,         -2.5,         -2.5,          95.
    325,         -2.5,          -5.,          95.
    326,         -2.5,           5.,          90.
    327,         -2.5,          2.5,          90.
    328,         -2.5,           0.,          90.
    329,         -2.5,         -2.5,          90.
    330,         -2.5,          -5.,          90.
    331,         -2.5,           5.,          85.
    332,         -2.5,          2.5,          85.
    333,         -2.5,           0.,          85.
    334,         -2.5,         -2.5,          85.
    335,         -2.5,          -5.,          85.
    336,         -2.5,           5.,          80.
    337,         -2.5,          2.5,          80.
    338,         -2.5,           0.,          80.
    339,         -2.5,         -2.5,          80.
    340,         -2.5,          -5.,          80.
    341,         -2.5,           5.,          75.
    342,         -2.5,          2.5,          75.
    343,         -2.5,           0.,          75.
    344,         -2.5,         -2.5,          75.
    345,         -2.5,          -5.,          75.
    346,         -2.5,           5.,          70.
    347,         -2.5,          2.5,          70.
    348,         -2.5,           0.,          70.
    349,         -2.5,         -2.5,          70.
    350,         -2.5,          -5.,          70.
    351,         -2.5,           5.,          65.
    352,         -2.5,          2.5,          65.
    353,         -2.5,           0.,          65.
    354,         -2.5,         -2.5,          65.
    355,         -2.5,          -5.,          65.
    356,         -2.5,           5.,          60.
    357,         -2.5,          2.5,          60.
    358,         -2.5,           0.,          60.
    359,         -2.5,         -2.5,          60.
    360,         -2.5,          -5.,          60.
    361,         -2.5,           5.,          55.
    362,         -2.5,          2.5,          55.
    363,         -2.5,           0.,          55.
    364,         -2.5,         -2.5,          55.
    365,         -2.5,          -5.,          55.
    366,         -2.5,           5.,          50.
    367,         -2.5,          2.5,          50.
    368,         -2.5,           0.,          50.
    369,         -2.5,         -2.5,          50.
    370,         -2.5,          -5.,          50.
    371,         -2.5,           5.,          45.
    372,         -2.5,          2.5,          45.
    373,         -2.5,           0.,          45.
    374,         -2.5,         -2.5,          45.
    375,         -2.5,          -5.,          45.
    376,         -2.5,           5.,          40.
    377,         -2.5,          2.5,          40.
    378,         -2.5,           0.,          40.
    379,         -2.5,         -2.5,          40.
    380,         -2.5,          -5.,          40.
    381,         -2.5,           5.,          35.
    382,         -2.5,          2.5,          35.
    383,         -2.5,           0.,          35.
    384,         -2.5,         -2.5,          35.
    385,         -2.5,          -5.,          35.
    386,         -2.5,           5.,          30.
    387,         -2.5,          2.5,          30.
    388,         -2.5,           0.,          30.
    389,         -2.5,         -2.5,          30.
    390,         -2.5,          -5.,          30.
    391,         -2.5,           5.,          25.
    392,         -2.5,          2.5,          25.
    393,         -2.5,           0.,          25.
    394,         -2.5,         -2.5,          25.
    395,         -2.5,          -5.,          25.
    396,         -2.5,           5.,          20.
    397,         -2.5,          2.5,          20.
    398,         -2.5,           0.,          20.
    399,         -2.5,         -2.5,          20.
    400,         -2.5,          -5.,          20.
    401,         -2.5,           5.,          15.
    402,         -2.5,          2.5,          15.
    403,         -2.5,           0.,          15.
    404,         -2.5,         -2.5,          15.
    405,         -2.5,          -5.,          15.
    406,         -2.5,           5.,          10.
    407,         -2.5,          2.5,          10.
    408,         -2.5,           0.,          10.
    409,         -2.5,         -2.5,          10.
    410,         -2.5,          -5.,          10.
    411,         -2.5,           5.,           5.
    412,         -2.5,          2.5,           5.
    413,         -2.5,           0.,           5.
    414,         -2.5,         -2.5,           5.
    415,         -2.5,          -5.,           5.
    416,         -2.5,           5.,           0.
    417,         -2.5,          2.5,           0.
    418,         -2.5,           0.,           0.
    419,         -2.5,         -2.5,           0.
    420,         -2.5,          -5.,           0.
    421,          -5.,           5.,         100.
    422,          -5.,          2.5,         100.
    423,          -5.,           0.,         100.
    424,          -5.,         -2.5,         100.
    425,          -5.,          -5.,         100.
    426,          -5.,           5.,          95.
    427,          -5.,          2.5,          95.
    428,          -5.,           0.,          95.
    429,          -5.,         -2.5,          95.
    430,          -5.,          -5.,          95.
    431,          -5.,           5.,          90.
    432,          -5.,          2.5,          90.
    433,          -5.,           0.,          90.
    434,          -5.,         -2.5,          90.
    435,          -5.,          -5.,          90.
    436,          -5.,           5.,          85.
    437,          -5.,          2.5,          85.
    438,          -5.,           0.,          85.
    439,          -5.,         -2.5,          85.
    440,          -5.,          -5.,          85.
    441,          -5.,           5.,          80.
    442,          -5.,          2.5,          80.
    443,          -5.,           0.,          80.
    444,          -5.,         -2.5,          80.
    445,          -5.,          -5.,          80.
    446,          -5.,           5.,          75.
    447,          -5.,          2.5,          75.
    448,          -5.,           0.,          75.
    449,          -5.,         -2.5,          75.
    450,          -5.,          -5.,          75.
    451,          -5.,           5.,          70.
    452,          -5.,          2.5,          70.
    453,          -5.,           0.,          70.
    454,          -5.,         -2.5,          70.
    455,          -5.,          -5.,          70.
    456,          -5.,           5.,          65.
    457,          -5.,          2.5,          65.
    458,          -5.,           0.,          65.
    459,          -5.,         -2.5,          65.
    460,          -5.,          -5.,          65.
    461,          -5.,           5.,          60.
    462,          -5.,          2.5,          60.
    463,          -5.,           0.,          60.
    464,          -5.,         -2.5,          60.
    465,          -5.,          -5.,          60.
    466,          -5.,           5.,          55.
    467,          -5.,          2.5,          55.
    468,          -5.,           0.,          55.
    469,          -5.,         -2.5,          55.
    470,          -5.,          -5.,          55.
    471,          -5.,           5.,          50.
    472,          -5.,          2.5,          50.
    473,          -5.,           0.,          50.
    474,          -5.,         -2.5,          50.
    475,          -5.,          -5.,          50.
    476,          -5.,           5.,          45.
    477,          -5.,          2.5,          45.
    478,          -5.,           0.,          45.
    479,          -5.,         -2.5,          45.
    480,          -5.,          -5.,          45.
    481,          -5.,           5.,          40.
    482,          -5.,          2.5,          40.
    483,          -5.,           0.,          40.
    484,          -5.,         -2.5,          40.
    485,          -5.,          -5.,          40.
    486,          -5.,           5.,          35.
    487,          -5.,          2.5,          35.
    488,          -5.,           0.,          35.
    489,          -5.,         -2.5,          35.
    490,          -5.,          -5.,          35.
    491,          -5.,           5.,          30.
    492,          -5.,          2.5,          30.
    493,          -5.,           0.,          30.
    494,          -5.,         -2.5,          30.
    495,          -5.,          -5.,          30.
    496,          -5.,           5.,          25.
    497,          -5.,          2.5,          25.
    498,          -5.,           0.,          25.
    499,          -5.,         -2.5,          25.
    500,          -5.,          -5.,          25.
    501,          -5.,           5.,          20.
    502,          -5.,          2.5,          20.
    503,          -5.,           0.,          20.
    504,          -5.,         -2.5,          20.
    505,          -5.,          -5.,          20.
    506,          -5.,           5.,          15.
    507,          -5.,          2.5,          15.
    508,          -5.,           0.,          15.
    509,          -5.,         -2.5,          15.
    510,          -5.,          -5.,          15.
    511,          -5.,           5.,          10.
    512,          -5.,          2.5,          10.
    513,          -5.,           0.,          10.
    514,          -5.,         -2.5,          10.
    515,          -5.,          -5.,          10.
    516,          -5.,           5.,           5.
    517,          -5.,          2.5,           5.
    518,          -5.,           0.,           5.
    519,          -5.,         -2.5,           5.
    520,          -5.,          -5.,           5.
    521,          -5.,           5.,           0.
    522,          -5.,          2.5,           0.
    523,          -5.,           0.,           0.
    524,          -5.,         -2.5,           0.
    525,          -5.,          -5.,           0.
*Element, type=C3D8
  1, 106, 107, 112, 111,   1,   2,   7,   6
  2, 107, 108, 113, 112,   2,   3,   8,   7
  3, 108, 109, 114, 113,   3,   4,   9,   8
  4, 109, 110, 115, 114,   4,   5,  10,   9
  5, 111, 112, 117, 116,   6,   7,  12,  11
  6, 112, 113, 118, 117,   7,   8,  13,  12
  7, 113, 114, 119, 118,   8,   9,  14,  13
  8, 114, 115, 120, 119,   9,  10,  15,  14
  9, 116, 117, 122, 121,  11,  12,  17,  16
 10, 117, 118, 123, 122,  12,  13,  18,  17
 11, 118, 119, 124, 123,  13,  14,  19,  18
 12, 119, 120, 125, 124,  14,  15,  20,  19
 13, 121, 122, 127, 126,  16,  17,  22,  21
 14, 122, 123, 128, 127,  17,  18,  23,  22
 15, 123, 124, 129, 128,  18,  19,  24,  23
 16, 124, 125, 130, 129,  19,  20,  25,  24
 17, 126, 127, 132, 131,  21,  22,  27,  26
 18, 127, 128, 133, 132,  22,  23,  28,  27
 19, 128, 129, 134, 133,  23,  24,  29,  28
 20, 129, 130, 135, 134,  24,  25,  30,  29
 21, 131, 132, 137, 136,  26,  27,  32,  31
 22, 132, 133, 138, 137,  27,  28,  33,  32
 23, 133, 134, 139, 138,  28,  29,  34,  33
 24, 134, 135, 140, 139,  29,  30,  35,  34
 25, 136, 137, 142, 141,  31,  32,  37,  36
 26, 137, 138, 143, 142,  32,  33,  38,  37
 27, 138, 139, 144, 143,  33,  34,  39,  38
 28, 139, 140, 145, 144,  34,  35,  40,  39
 29, 141, 142, 147, 146,  36,  37,  42,  41
 30, 142, 143, 148, 147,  37,  38,  43,  42
 31, 143, 144, 149, 148,  38,  39,  44,  43
 32, 144, 145, 150, 149,  39,  40,  45,  44
 33, 146, 147, 152, 151,  41,  42,  47,  46
 34, 147, 148, 153, 152,  42,  43,  48,  47
 35, 148, 149, 154, 153,  43,  44,  49,  48
 36, 149, 150, 155, 154,  44,  45,  50,  49
 37, 151, 152, 157, 156,  46,  47,  52,  51
 38, 152, 153, 158, 157,  47,  48,  53,  52
 39, 153, 154, 159, 158,  48,  49,  54,  53
 40, 154, 155, 160, 159,  49,  50,  55,  54
 41, 156, 157, 162, 161,  51,  52,  57,  56
 42, 157, 158, 163, 162,  52,  53,  58,  57
 43, 158, 159, 164, 163,  53,  54,  59,  58
 44, 159, 160, 165, 164,  54,  55,  60,  59
 45, 161, 162, 167, 166,  56,  57,  62,  61
 46, 162, 163, 168, 167,  57,  58,  63,  62
 47, 163, 164, 169, 168,  58,  59,  64,  63
 48, 164, 165, 170, 169,  59,  60,  65,  64
 49, 166, 167, 172, 171,  61,  62,  67,  66
 50, 167, 168, 173, 172,  62,  63,  68,  67
 51, 168, 169, 174, 173,  63,  64,  69,  68
 52, 169, 170, 175, 174,  64,  65,  70,  69
 53, 171, 172, 177, 176,  66,  67,  72,  71
 54, 172, 173, 178, 177,  67,  68,  73,  72
 55, 173, 174, 179, 178,  68,  69,  74,  73
 56, 174, 175, 180, 179,  69,  70,  75,  74
 57, 176, 177, 182, 181,  71,  72,  77,  76
 58, 177, 178, 183, 182,  72,  73,  78,  77
 59, 178, 179, 184, 183,  73,  74,  79,  78
 60, 179, 180, 185, 184,  74,  75,  80,  79
 61, 181, 182, 187, 186,  76,  77,  82,  81
 62, 182, 183, 188, 187,  77,  78,  83,  82
 63, 183, 184, 189, 188,  78,  79,  84,  83
 64, 184, 185, 190, 189,  79,  80,  85,  84
 65, 186, 187, 192, 191,  81,  82,  87,  86
 66, 187, 188, 193, 192,  82,  83,  88,  87
 67, 188, 189, 194, 193,  83,  84,  89,  88
 68, 189, 190, 195, 194,  84,  85,  90,  89
 69, 191, 192, 197, 196,  86,  87,  92,  91
 70, 192, 193, 198, 197,  87,  88,  93,  92
 71, 193, 194, 199, 198,  88,  89,  94,  93
 72, 194, 195, 200, 199,  89,  90,  95,  94
 73, 196, 197, 202, 201,  91,  92,  97,  96
 74, 197, 198, 203, 202,  92,  93,  98,  97
 75, 198, 199, 204, 203,  93,  94,  99,  98
 76, 199, 200, 205, 204,  94,  95, 100,  99
 77, 201, 202, 207, 206,  96,  97, 102, 101
 78, 202, 203, 208, 207,  97,  98, 103, 102
 79, 203, 204, 209, 208,  98,  99, 104, 103
 80, 204, 205, 210, 209,  99, 100, 105, 104
 81, 211, 212, 217, 216, 106, 107, 112, 111
 82, 212, 213, 218, 217, 107, 108, 113, 112
 83, 213, 214, 219, 218, 108, 109, 114, 113
 84, 214, 215, 220, 219, 109, 110, 115, 114
 85, 216, 217, 222, 221, 111, 112, 117, 116
 86, 217, 218, 223, 222, 112, 113, 118, 117
 87, 218, 219, 224, 223, 113, 114, 119, 118
 88, 219, 220, 225, 224, 114, 115, 120, 119
 89, 221, 222, 227, 226, 116, 117, 122, 121
 90, 222, 223, 228, 227, 117, 118, 123, 122
 91, 223, 224, 229, 228, 118, 119, 124, 123
 92, 224, 225, 230, 229, 119, 120, 125, 124
 93, 226, 227, 232, 231, 121, 122, 127, 126
 94, 227, 228, 233, 232, 122, 123, 128, 127
 95, 228, 229, 234, 233, 123, 124, 129, 128
 96, 229, 230, 235, 234, 124, 125, 130, 129
 97, 231, 232, 237, 236, 126, 127, 132, 131
 98, 232, 233, 238, 237, 127, 128, 133, 132
 99, 233, 234, 239, 238, 128, 129, 134, 133
100, 234, 235, 240, 239, 129, 130, 135, 134
101, 236, 237, 242, 241, 131, 132, 137, 136
102, 237, 238, 243, 242, 132, 133, 138, 137
103, 238, 239, 244, 243, 133, 134, 139, 138
104, 239, 240, 245, 244, 134, 135, 140, 139
105, 241, 242, 247, 246, 136, 137, 142, 141
106, 242, 243, 248, 247, 137, 138, 143, 142
107, 243, 244, 249, 248, 138, 139, 144, 143
108, 244, 245, 250, 249, 139, 140, 145, 144
109, 246, 247, 252, 251, 141, 142, 147, 146
110, 247, 248, 253, 252, 142, 143, 148, 147
111, 248, 249, 254, 253, 143, 144, 149, 148
112, 249, 250, 255, 254, 144, 145, 150, 149
113, 251, 252, 257, 256, 146, 147, 152, 151
114, 252, 253, 258, 257, 147, 148, 153, 152
115, 253, 254, 259, 258, 148, 149, 154, 153
116, 254, 255, 260, 259, 149, 150, 155, 154
117, 256, 257, 262, 261, 151, 152, 157, 156
118, 257, 258, 263, 262, 152, 153, 158, 157
119, 258, 259, 264, 263, 153, 154, 159, 158
120, 259, 260, 265, 264, 154, 155, 160, 159
121, 261, 262, 267, 266, 156, 157, 162, 161
122, 262, 263, 268, 267, 157, 158, 163, 162
123, 263, 264, 269, 268, 158, 159, 164, 163
124, 264, 265, 270, 269, 159, 160, 165, 164
125, 266, 267, 272, 271, 161, 162, 167, 166
126, 267, 268, 273, 272, 162, 163, 168, 167
127, 268, 269, 274, 273, 163, 164, 169, 168
128, 269, 270, 275, 274, 164, 165, 170, 169
129, 271, 272, 277, 276, 166, 167, 172, 171
130, 272, 273, 278, 277, 167, 168, 173, 172
131, 273, 274, 279, 278, 168, 169, 174, 173
132, 274, 275, 280, 279, 169, 170, 175, 174
133, 276, 277, 282, 281, 171, 172, 177, 176
134, 277, 278, 283, 282, 172, 173, 178, 177
135, 278, 279, 284, 283, 173, 174, 179, 178
136, 279, 280, 285, 284, 174, 175, 180, 179
137, 281, 282, 287, 286, 176, 177, 182, 181
138, 282, 283, 288, 287, 177, 178, 183, 182
139, 283, 284, 289, 288, 178, 179, 184, 183
140, 284, 285, 290, 289, 179, 180, 185, 184
141, 286, 287, 292, 291, 181, 182, 187, 186
142, 287, 288, 293, 292, 182, 183, 188, 187
143, 288, 289, 294, 293, 183, 184, 189, 188
144, 289, 290, 295, 294, 184, 185, 190, 189
145, 291, 292, 297, 296, 186, 187, 192, 191
146, 292, 293, 298, 297, 187, 188, 193, 192
147, 293, 294, 299, 298, 188, 189, 194, 193
148, 294, 295, 300, 299, 189, 190, 195, 194
149, 296, 297, 302, 301, 191, 192, 197, 196
150, 297, 298, 303, 302, 192, 193, 198, 197
151, 298, 299, 304, 303, 193, 194, 199, 198
152, 299, 300, 305, 304, 194, 195, 200, 199
153, 301, 302, 307, 306, 196, 197, 202, 201
154, 302, 303, 308, 307, 197, 198, 203, 202
155, 303, 304, 309, 308, 198, 199, 204, 203
156, 304, 305, 310, 309, 199, 200, 205, 204
157, 306, 307, 312, 311, 201, 202, 207, 206
158, 307, 308, 313, 312, 202, 203, 208, 207
159, 308, 309, 314, 313, 203, 204, 209, 208
160, 309, 310, 315, 314, 204, 205, 210, 209
161, 316, 317, 322, 321, 211, 212, 217, 216
162, 317, 318, 323, 322, 212, 213, 218, 217
163, 318, 319, 324, 323, 213, 214, 219, 218
164, 319, 320, 325, 324, 214, 215, 220, 219
165, 321, 322, 327, 326, 216, 217, 222, 221
166, 322, 323, 328, 327, 217, 218, 223, 222
167, 323, 324, 329, 328, 218, 219, 224, 223
168, 324, 325, 330, 329, 219, 220, 225, 224
169, 326, 327, 332, 331, 221, 222, 227, 226
170, 327, 328, 333, 332, 222, 223, 228, 227
171, 328, 329, 334, 333, 223, 224, 229, 228
172, 329, 330, 335, 334, 224, 225, 230, 229
173, 331, 332, 337, 336, 226, 227, 232, 231
174, 332, 333, 338, 337, 227, 228, 233, 232
175, 333, 334, 339, 338, 228, 229, 234, 233
176, 334, 335, 340, 339, 229, 230, 235, 234
177, 336, 337, 342, 341, 231, 232, 237, 236
178, 337, 338, 343, 342, 232, 233, 238, 237
179, 338, 339, 344, 343, 233, 234, 239, 238
180, 339, 340, 345, 344, 234, 235, 240, 239
181, 341, 342, 347, 346, 236, 237, 242, 241
182, 342, 343, 348, 347, 237, 238, 243, 242
183, 343, 344, 349, 348, 238, 239, 244, 243
184, 344, 345, 350, 349, 239, 240, 245, 244
185, 346, 347, 352, 351, 241, 242, 247, 246
186, 347, 348, 353, 352, 242, 243, 248, 247
187, 348, 349, 354, 353, 243, 244, 249, 248
188, 349, 350, 355, 354, 244, 245, 250, 249
189, 351, 352, 357, 356, 246, 247, 252, 251
190, 352, 353, 358, 357, 247, 248, 253, 252
191, 353, 354, 359, 358, 248, 249, 254, 253
192, 354, 355, 360, 359, 249, 250, 255, 254
193, 356, 357, 362, 361, 251, 252, 257, 256
194, 357, 358, 363, 362, 252, 253, 258, 257
195, 358, 359, 364, 363, 253, 254, 259, 258
196, 359, 360, 365, 364, 254, 255, 260, 259
197, 361, 362, 367, 366, 256, 257, 262, 261
198, 362, 363, 368, 367, 257, 258, 263, 262
199, 363, 364, 369, 368, 258, 259, 264, 263
200, 364, 365, 370, 369, 259, 260, 265, 264
201, 366, 367, 372, 371, 261, 262, 267, 266
202, 367, 368, 373, 372, 262, 263, 268, 267
203, 368, 369, 374, 373, 263, 264, 269, 268
204, 369, 370, 375, 374, 264, 265, 270, 269
205, 371, 372, 377, 376, 266, 267, 272, 271
206, 372, 373, 378, 377, 267, 268, 273, 272
207, 373, 374, 379, 378, 268, 269, 274, 273
208, 374, 375, 380, 379, 269, 270, 275, 274
209, 376, 377, 382, 381, 271, 272, 277, 276
210, 377, 378, 383, 382, 272, 273, 278, 277
211, 378, 379, 384, 383, 273, 274, 279, 278
212, 379, 380, 385, 384, 274, 275, 280, 279
213, 381, 382, 387, 386, 276, 277, 282, 281
214, 382, 383, 388, 387, 277, 278, 283, 282
215, 383, 384, 389, 388, 278, 279, 284, 283
216, 384, 385, 390, 389, 279, 280, 285, 284
217, 386, 387, 392, 391, 281, 282, 287, 286
218, 387, 388, 393, 392, 282, 283, 288, 287
219, 388, 389, 394, 393, 283, 284, 289, 288
220, 389, 390, 395, 394, 284, 285, 290, 289
221, 391, 392, 397, 396, 286, 287, 292, 291
222, 392, 393, 398, 397, 287, 288, 293, 292
223, 393, 394, 399, 398, 288, 289, 294, 293
224, 394, 395, 400, 399, 289, 290, 295, 294
225, 396, 397, 402, 401, 291, 292, 297, 296
226, 397, 398, 403, 402, 292, 293, 298, 297
227, 398, 399, 404, 403, 293, 294, 299, 298
228, 399, 400, 405, 404, 294, 295, 300, 299
229, 401, 402, 407, 406, 296, 297, 302, 301
230, 402, 403, 408, 407, 297, 298, 303, 302
231, 403, 404, 409, 408, 298, 299, 304, 303
232, 404, 405, 410, 409, 299, 300, 305, 304
233, 406, 407, 412, 411, 301, 302, 307, 306
234, 407, 408, 413, 412, 302, 303, 308, 307
235, 408, 409, 414, 413, 303, 304, 309, 308
236, 409, 410, 415, 414, 304, 305, 310, 309
237, 411, 412, 417, 416, 306, 307, 312, 311
238, 412, 413, 418, 417, 307, 308, 313, 312
239, 413, 414, 419, 418, 308, 309, 314, 313
240, 414, 415, 420, 419, 309, 310, 315, 314
241, 421, 422, 427, 426, 316, 317, 322, 321
242, 422, 423, 428, 427, 317, 318, 323, 322
243, 423, 424, 429, 428, 318, 319, 324, 323
244, 424, 425, 430, 429, 319, 320, 325, 324
245, 426, 427, 432, 431, 321, 322, 327, 326
246, 427, 428, 433, 432, 322, 323, 328, 327
247, 428, 429, 434, 433, 323, 324, 329, 328
248, 429, 430, 435, 434, 324, 325, 330, 329
249, 431, 432, 437, 436, 326, 327, 332, 331
250, 432, 433, 438, 437, 327, 328, 333, 332
251, 433, 434, 439, 438, 328, 329, 334, 333
252, 434, 435, 440, 439, 329, 330, 335, 334
253, 436, 437, 442, 441, 331, 332, 337, 336
254, 437, 438, 443, 442, 332, 333, 338, 337
255, 438, 439, 444, 443, 333, 334, 339, 338
256, 439, 440, 445, 444, 334, 335, 340, 339
257, 441, 442, 447, 446, 336, 337, 342, 341
258, 442, 443, 448, 447, 337, 338, 343, 342
259, 443, 444, 449, 448, 338, 339, 344, 343
260, 444, 445, 450, 449, 339, 340, 345, 344
261, 446, 447, 452, 451, 341, 342, 347, 346
262, 447, 448, 453, 452, 342, 343, 348, 347
263, 448, 449, 454, 453, 343, 344, 349, 348
264, 449, 450, 455, 454, 344, 345, 350, 349
265, 451, 452, 457, 456, 346, 347, 352, 351
266, 452, 453, 458, 457, 347, 348, 353, 352
267, 453, 454, 459, 458, 348, 349, 354, 353
268, 454, 455, 460, 459, 349, 350, 355, 354
269, 456, 457, 462, 461, 351, 352, 357, 356
270, 457, 458, 463, 462, 352, 353, 358, 357
271, 458, 459, 464, 463, 353, 354, 359, 358
272, 459, 460, 465, 464, 354, 355, 360, 359
273, 461, 462, 467, 466, 356, 357, 362, 361
274, 462, 463, 468, 467, 357, 358, 363, 362
275, 463, 464, 469, 468, 358, 359, 364, 363
276, 464, 465, 470, 469, 359, 360, 365, 364
277, 466, 467, 472, 471, 361, 362, 367, 366
278, 467, 468, 473, 472, 362, 363, 368, 367
279, 468, 469, 474, 473, 363, 364, 369, 368
280, 469, 470, 475, 474, 364, 365, 370, 369
281, 471, 472, 477, 476, 366, 367, 372, 371
282, 472, 473, 478, 477, 367, 368, 373, 372
283, 473, 474, 479, 478, 368, 369, 374, 373
284, 474, 475, 480, 479, 369, 370, 375, 374
285, 476, 477, 482, 481, 371, 372, 377, 376
286, 477, 478, 483, 482, 372, 373, 378, 377
287, 478, 479, 484, 483, 373, 374, 379, 378
288, 479, 480, 485, 484, 374, 375, 380, 379
289, 481, 482, 487, 486, 376, 377, 382, 381
290, 482, 483, 488, 487, 377, 378, 383, 382
291, 483, 484, 489, 488, 378, 379, 384, 383
292, 484, 485, 490, 489, 379, 380, 385, 384
293, 486, 487, 492, 491, 381, 382, 387, 386
294, 487, 488, 493, 492, 382, 383, 388, 387
295, 488, 489, 494, 493, 383, 384, 389, 388
296, 489, 490, 495, 494, 384, 385, 390, 389
297, 491, 492, 497, 496, 386, 387, 392, 391
298, 492, 493, 498, 497, 387, 388, 393, 392
299, 493, 494, 499, 498, 388, 389, 394, 393
300, 494, 495, 500, 499, 389, 390, 395, 394
301, 496, 497, 502, 501, 391, 392, 397, 396
302, 497, 498, 503, 502, 392, 393, 398, 397
303, 498, 499, 504, 503, 393, 394, 399, 398
304, 499, 500, 505, 504, 394, 395, 400, 399
305, 501, 502, 507, 506, 396, 397, 402, 401
306, 502, 503, 508, 507, 397, 398, 403, 402
307, 503, 504, 509, 508, 398, 399, 404, 403
308, 504, 505, 510, 509, 399, 400, 405, 404
309, 506, 507, 512, 511, 401, 402, 407, 406
310, 507, 508, 513, 512, 402, 403, 408, 407
311, 508, 509, 514, 513, 403, 404, 409, 408
312, 509, 510, 515, 514, 404, 405, 410, 409
313, 511, 512, 517, 516, 406, 407, 412, 411
314, 512, 513, 518, 517, 407, 408, 413, 412
315, 513, 514, 519, 518, 408, 409, 414, 413
316, 514, 515, 520, 519, 409, 410, 415, 414
317, 516, 517, 522, 521, 411, 412, 417, 416
318, 517, 518, 523, 522, 412, 413, 418, 417
319, 518, 519, 524, 523, 413, 414, 419, 418
320, 519, 520, 525, 524, 414, 415, 420, 419
*Nset, nset=Part-1-1_Set-2, generate
   1,  525,    1
*Elset, elset=Part-1-1_Set-2, generate
   1,  320,    1
** Section: Section-1
*Solid Section, elset=Part-1-1_Set-2, material=Material-1
,
*System
*Nset, nset=left
   1,   2,   3,   4,   5, 106, 107, 108, 109, 110, 211, 212, 213, 214, 215, 316
 317, 318, 319, 320, 421, 422, 423, 424, 425
*Nset, nset=right
 101, 102, 103, 104, 105, 206, 207, 208, 209, 210, 311, 312, 313, 314, 315, 416
 417, 418, 419, 420, 521, 522, 523, 524, 525
** 
** MATERIALS
** 
*Material, name=Material-1
*Elastic
210000., 0.3
** ----------------------------------------------------------------
** 
** STEP: Step-1
** 
*Step, name=Step-1, nlgeom=NO
*Static
1., 1., 1e-05, 1.
** 
** BOUNDARY CONDITIONS
** 
** Name: BC-1 Type: Symmetry/Antisymmetry/Encastre
*Boundary
left, PINNED
** 
** LOADS
** 
** Name: Load-1   Type: Concentrated force
*Cload
right, 2, -40.
** 
** OUTPUT REQUESTS
** 
*Restart, write, frequency=0
** 
** FIELD OUTPUT: F-Output-1
** 
*Output, field, variable=PRESELECT
** 
** HISTORY OUTPUT: H-Output-1
** 
*Output, history, variable=PRESELECT
*End Step
